Cu  O  C  H Cu 
 1.0000000000000000
    10.9005742919999999    0.0000000000000000    0.0000000000000000
     0.0000000000000000   10.2771600009000004    0.0000000000000000
     0.0000000000000000    0.0000000000000000   20.0000000000000000
 Cu  O   C   H   Cu 
  36   4   9   8  36
Selective dynamics
Cartesian
  0.0055459135240329  0.0052707812758468  3.8148763280000257   T   T   T
  3.6277604363955831  0.0030215323152068  3.8122539699999440   T   T   T
  7.2745225642270110  0.0009110476243113  3.8109188280000699   T   T   T
  0.0077806249988133  2.5742087558839146  3.8166812199999360   T   T   T
  3.6301894211755896  2.5687750631231583  3.8039054200000062   T   T   T
  7.2794450215845279  2.5610883167971439  3.8076324700000441   T   T   T
  0.0133631524618639  5.1347936840238608  3.8172419359999319   T   T   T
  3.6333935087315106  5.1392921572799546  3.8334281020000560   T   T   T
  7.2792282178822720  5.1426606311010774  3.7987934619999919   T   T   T
  0.0147862562274648  7.7031098092623571  3.8137923380000420   T   T   T
  3.6231352965621206  7.7140550802408985  3.8089606299999441   T   T   T
  7.2784861198651809  7.7161327643479236  3.7968842879999443   T   T   T
  1.8135577475985509  1.2902455569538991  5.1514667639999345   T   T   T
  5.4633071985257917  1.2784248600152965  5.1378303340000278   T   T   T
  9.0963282444442903  1.2882663968966102  5.1567569920000258   T   T   T
  1.8432415897988341  3.8707031878743465  5.1750717580000583   T   T   T
  5.4715097782151245  3.8454180958580837  5.1008958699999596   T   T   T
  9.0940076865867141  3.8501803427027519  5.1495852840000120   T   T   T
  1.8395616976253524  6.4136785713028699  5.1837324980000679   T   T   T
  5.4694404273622501  6.4536703265553612  5.0967331619999356   T   T   T
  9.1023845206765372  6.4239848341654708  5.1296056500000020   T   T   T
  1.8085779455898561  8.9959491384669921  5.1563802639999778   T   T   T
  5.4518245793490152  9.0081619100873080  5.1376740480000640   T   T   T
  9.1097952325067002  9.0021475845071617  5.1380615819999775   T   T   T
  0.0058345759920793  0.0071358689678982  6.3207825739999635   T   T   T
  3.6318417531180067  0.0062468802398128  6.3015265319999960   T   T   T
  7.2810905919006350  0.0031880952750193  6.2985070599999915   T   T   T
  0.0104921297733060  2.5753355231520705  6.3076604020000104   T   T   T
  3.6662234539728686  2.5576090911612899  6.2536708839999742   T   T   T
  7.2680129974233116  2.5699152585286238  6.2971267720000421   T   T   T
 10.8989894117213080  5.1369016477273997  6.3064226400000223   T   T   T
  3.7478733827137192  5.1648682851071710  6.3229257160000421   T   T   T
  7.2720493263855115  5.1334546235170313  6.2509331900000120   T   T   T
  0.0029246033714906  7.7043358806167390  6.3077146439999865   T   T   T
  3.6444792946813078  7.7364538442034716  6.2873106959999339   T   T   T
  7.2962592555350678  7.7362551353148792  6.2385811839999405   T   T   T
  4.5876591171408014  0.9167698474619599 10.7218398392848577   T   T   T
  5.1426664268021511 -2.2634623395577984  8.2076162667149912   T   T   T
  5.7542311135081441 -1.5597320979116396 10.2704912801287556   T   T   T
  5.2982280801687205  2.0622443140255116  8.8080598270492896   T   T   T
  3.5535126284222120  0.4011391745464317  9.9991481352922857   T   T   T
  3.6910376697146821 -0.8054415724234300  9.3127170287279384   T   T   T
  2.3448332855953544  1.0960457684546643  9.9526783390102498   T   T   T
  2.6199705607358053 -1.3169635142755389  8.5799870913925798   T   T   T
  1.2737479600670056  0.5844945331328817  9.2200422635412700   T   T   T
  1.4113784104644580 -0.6219047091577866  8.5336882606215703   T   T   T
  4.9435999205467258 -1.5474780011951876  9.3490527709966411   T   T   T
  5.4278779019569585  1.7700649072022219  9.9894003232393889   T   T   T
  6.5293103603577549  2.2830052101393150 10.8690983652992657   T   T   T
  2.2296505307898413  2.0359147557727972 10.4857360466489258   T   T   T
  2.6905132862162651 -2.2606935180437642  8.0455838972877789   T   T   T
  0.3323656077456647  1.1249489771332064  9.1847036062629002   T   T   T
  0.5761967589008279 -1.0216001155702255  7.9659114285966606   T   T   T
  6.1035236636514227  2.8457202351354831 11.7033829807342347   T   T   T
  7.1749218378552388  2.9500558304763831 10.2907062923665134   T   T   T
  7.1290193972790510  1.4458371470169880 11.2346469463701570   T   T   T
  5.9866033470674962 -2.7629700824839736  8.2330931065865922   T   T   T
  1.8167623823633852  1.2846450001125000  0.0000000000000000   F   F   F
  5.4502871460000000  1.2846450001125000  0.0000000000000000   F   F   F
  9.0838119096366157  1.2846450001125000  0.0000000000000000   F   F   F
  1.8167623823633852  3.8539350003375001  0.0000000000000000   F   F   F
  5.4502871460000000  3.8539350003375001  0.0000000000000000   F   F   F
  9.0838119096366157  3.8539350003375001  0.0000000000000000   F   F   F
  1.8167623823633852  6.4232250005624998  0.0000000000000000   F   F   F
  5.4502871460000000  6.4232250005624998  0.0000000000000000   F   F   F
  9.0838119096366157  6.4232250005624998  0.0000000000000000   F   F   F
  1.8167623823633852  8.9925150007875008  0.0000000000000000   F   F   F
  5.4502871460000000  8.9925150007875008  0.0000000000000000   F   F   F
  9.0838119096366157  8.9925150007875008  0.0000000000000000   F   F   F
  0.0000000000000000  0.0000000000000000  1.2846450000000682   F   F   F
  3.6335247636366148  0.0000000000000000  1.2846450000000682   F   F   F
  7.2670495283633851  0.0000000000000000  1.2846450000000682   F   F   F
  0.0000000000000000  2.5692900002250001  1.2846450000000682   F   F   F
  3.6335247636366148  2.5692900002250001  1.2846450000000682   F   F   F
  7.2670495283633851  2.5692900002250001  1.2846450000000682   F   F   F
  0.0000000000000000  5.1385800004500002  1.2846450000000682   F   F   F
  3.6335247636366148  5.1385800004500002  1.2846450000000682   F   F   F
  7.2670495283633851  5.1385800004500002  1.2846450000000682   F   F   F
  0.0000000000000000  7.7078700006750003  1.2846450000000682   F   F   F
  3.6335247636366148  7.7078700006750003  1.2846450000000682   F   F   F
  7.2670495283633851  7.7078700006750003  1.2846450000000682   F   F   F
  1.8167623823633852  1.2846450001125000  2.5692899999999956   F   F   F
  5.4502871460000000  1.2846450001125000  2.5692899999999956   F   F   F
  9.0838119096366157  1.2846450001125000  2.5692899999999956   F   F   F
  1.8167623823633852  3.8539350003375001  2.5692899999999956   F   F   F
  5.4502871460000000  3.8539350003375001  2.5692899999999956   F   F   F
  9.0838119096366157  3.8539350003375001  2.5692899999999956   F   F   F
  1.8167623823633852  6.4232250005624998  2.5692899999999956   F   F   F
  5.4502871460000000  6.4232250005624998  2.5692899999999956   F   F   F
  9.0838119096366157  6.4232250005624998  2.5692899999999956   F   F   F
  1.8167623823633852  8.9925150007875008  2.5692899999999956   F   F   F
  5.4502871460000000  8.9925150007875008  2.5692899999999956   F   F   F
  9.0838119096366157  8.9925150007875008  2.5692899999999956   F   F   F
