Au  C  N  H                             
   1.00000000000000     
    20.3604714350000009    0.0000000000000000    0.0000000000000000
    10.1802357175000004   17.6326854956999988    0.0000000000000000
     0.0000000000000000    0.0000000000000000   20.0000000000000000
   Au   C    N    H 
   192     7     2    10
Selective dynamics
Direct
  0.0000000000000000  0.0000000000000000  0.0000000000000000   F   F   F
  0.0833333333338544  0.0833333333347497  0.0000000000000000   F   F   F
  0.1666666666656269  0.1666666666638292  0.0000000000000000   F   F   F
  0.2499999999975415  0.0000000000000000  0.0000000000000000   F   F   F
  0.3333333333313959  0.0833333333347497  0.0000000000000000   F   F   F
  0.4166666666680854  0.1666666666638292  0.0000000000000000   F   F   F
  0.0000000000019398  0.2499999999985789  0.0000000000000000   F   F   F
  0.0833333333308772  0.3333333333333357  0.0000000000000000   F   F   F
  0.1666666666647316  0.4166666666680854  0.0000000000000000   F   F   F
  0.2499999999994813  0.2499999999985789  0.0000000000000000   F   F   F
  0.3333333333333357  0.3333333333333357  0.0000000000000000   F   F   F
  0.4166666666622731  0.4166666666680854  0.0000000000000000   F   F   F
  0.0833333333325115  0.0000000000000000  0.1199752285000031   F   F   F
  0.0000000000005969  0.1666666666638292  0.1199752285000031   F   F   F
  0.1666666666663659  0.0833333333347497  0.1199752285000031   F   F   F
  0.3333333333349700  0.0000000000000000  0.1199752285000031   F   F   F
  0.2500000000030553  0.1666666666638292  0.1199752285000031   F   F   F
  0.4166666666639145  0.0833333333347497  0.1199752285000031   F   F   F
  0.0833333333344513  0.2499999999985789  0.1199752285000031   F   F   F
  0.9999999999997016  0.4166666666680854  0.1199752285000031   F   F   F
  0.1666666666683057  0.3333333333333357  0.1199752285000031   F   F   F
  0.3333333333319928  0.2499999999985789  0.1199752285000031   F   F   F
  0.2499999999972431  0.4166666666680854  0.1199752285000031   F   F   F
  0.4166666666658472  0.3333333333333357  0.1199752285000031   F   F   F
  0.0002324415091749  0.0830658778636318  0.2379849877683000   T   T   T
  0.1667698484222984  0.9998739485378766  0.2380158900510071   T   T   T
  0.0834237308760725  0.1665634240388336  0.2380170843714717   T   T   T
  0.2500077156681377  0.0833105260767231  0.2380127387353640   T   T   T
  0.4166281266274389  0.0000602692776828  0.2379943138156707   T   T   T
  0.3332893309683824  0.1666688608003563  0.2380576574866641   T   T   T
  0.0000441067357427  0.3331708996761575  0.2380340131358156   T   T   T
  0.1666577740634551  0.2499021510048535  0.2380172723752154   T   T   T
  0.0830191519376391  0.4164900979491989  0.2380207253139099   T   T   T
  0.2495211086736311  0.3333909388072761  0.2376158010647199   T   T   T
  0.4165886701470477  0.2495360101130518  0.2375442566552512   T   T   T
  0.3336466315414657  0.4163814554443869  0.2384740443497421   T   T   T
  0.0002719304067006  0.9997388834361094  0.3582905401714869   T   T   T
  0.0835314675892735  0.0831738273229836  0.3584717432189632   T   T   T
  0.1666231062810630  0.1665068123858273  0.3585102116923950   T   T   T
  0.2499626443750503  0.9999896930781944  0.3584270846328511   T   T   T
  0.3332873552503813  0.0831255003046162  0.3583469175375585   T   T   T
  0.4166103490962704  0.1659766480216698  0.3586942303809821   T   T   T
  0.0004922500773562  0.2495822100557195  0.3585735699105559   T   T   T
  0.0833372045935881  0.3331758453867051  0.3585392086539596   T   T   T
  0.1661117403066021  0.4162645829998009  0.3585718675034779   T   T   T
  0.2496859510927175  0.2495153757276182  0.3586283922329487   T   T   T
  0.3326309248933573  0.3319353869446775  0.3576504689711559   T   T   T
  0.4172432916884243  0.4141010660832492  0.3590060359160012   T   T   T
  0.9999999999989626  0.4999999999971649  0.0000000000000000   F   F   F
  0.0833333333328170  0.5833333333319146  0.0000000000000000   F   F   F
  0.1666666666666643  0.6666666666666643  0.0000000000000000   F   F   F
  0.2500000000014211  0.4999999999971649  0.0000000000000000   F   F   F
  0.3333333333303585  0.5833333333319146  0.0000000000000000   F   F   F
  0.4166666666642129  0.6666666666666643  0.0000000000000000   F   F   F
  0.9999999999980602  0.7500000000014211  0.0000000000000000   F   F   F
  0.0833333333347497  0.8333333333305006  0.0000000000000000   F   F   F
  0.1666666666636942  0.9166666666652503  0.0000000000000000   F   F   F
  0.2499999999956088  0.7500000000014211  0.0000000000000000   F   F   F
  0.3333333333322983  0.8333333333305006  0.0000000000000000   F   F   F
  0.4166666666661456  0.9166666666652503  0.0000000000000000   F   F   F
  0.0833333333363910  0.4999999999971649  0.1199752285000031   F   F   F
  0.0000000000016342  0.6666666666666643  0.1199752285000031   F   F   F
  0.1666666666653285  0.5833333333319146  0.1199752285000031   F   F   F
  0.3333333333339326  0.4999999999971649  0.1199752285000031   F   F   F
  0.2499999999991829  0.6666666666666643  0.1199752285000031   F   F   F
  0.4166666666677870  0.5833333333319146  0.1199752285000031   F   F   F
  0.0833333333305788  0.7500000000014211  0.1199752285000031   F   F   F
  0.9999999999986642  0.9166666666652503  0.1199752285000031   F   F   F
  0.1666666666672683  0.8333333333305006  0.1199752285000031   F   F   F
  0.3333333333330373  0.7500000000014211  0.1199752285000031   F   F   F
  0.2500000000011156  0.9166666666652503  0.1199752285000031   F   F   F
  0.4166666666648098  0.8333333333305006  0.1199752285000031   F   F   F
  0.9996225844827563  0.5834818031478152  0.2379368298000431   T   T   T
  0.1654932534989672  0.5000485474383453  0.2368057073550114   T   T   T
  0.0833848013073049  0.6666373717890530  0.2379302549684068   T   T   T
  0.2503983913572759  0.5835891609149521  0.2380867726206101   T   T   T
  0.4166978263766938  0.4993401905361313  0.2393683471939905   T   T   T
  0.3337079456550165  0.6667964255814032  0.2379725014678832   T   T   T
  0.0001824280279896  0.8331151654042329  0.2380662500075788   T   T   T
  0.1667961123170443  0.7500337850157226  0.2379780835889383   T   T   T
  0.0835309332534489  0.9164221505670516  0.2380149512700896   T   T   T
  0.2501232367164120  0.8333097153988179  0.2379997101359768   T   T   T
  0.4166974532871995  0.7505372005461206  0.2376854632794348   T   T   T
  0.3332924162195986  0.9167288447361642  0.2380532807623307   T   T   T
  0.9999241487862031  0.4999702973540162  0.3584436120372264   T   T   T
  0.0815648295259606  0.5843460075414615  0.3585126112510387   T   T   T
  0.1664026118198267  0.6671867920287589  0.3584893608383495   T   T   T
  0.2464047556320869  0.5010147018297728  0.3542329159252950   T   T   T
  0.3339500198514053  0.5851829317973445  0.3578473117690262   T   T   T
  0.4178282016581470  0.6676847731187809  0.3578482800921091   T   T   T
  0.9998515365303730  0.7501755226520468  0.3585638794577548   T   T   T
  0.0833919922792364  0.8332741214774119  0.3585200792372533   T   T   T
  0.1666483750427729  0.9168108117819478  0.3584639508767855   T   T   T
  0.2497578239870905  0.7508755761802157  0.3586388642134578   T   T   T
  0.3333736047976099  0.8335085325086071  0.3585868925337860   T   T   T
  0.4166448394108150  0.9167035707057187  0.3583722541398862   T   T   T
  0.5000000000000000  0.0000000000000000  0.0000000000000000   F   F   F
  0.5833333333289374  0.0833333333347497  0.0000000000000000   F   F   F
  0.6666666666656269  0.1666666666638292  0.0000000000000000   F   F   F
  0.7499999999975415  0.0000000000000000  0.0000000000000000   F   F   F
  0.8333333333313959  0.0833333333347497  0.0000000000000000   F   F   F
  0.9166666666680854  0.1666666666638292  0.0000000000000000   F   F   F
  0.4999999999970228  0.2499999999985789  0.0000000000000000   F   F   F
  0.5833333333308772  0.3333333333333357  0.0000000000000000   F   F   F
  0.6666666666647316  0.4166666666680854  0.0000000000000000   F   F   F
  0.7499999999994813  0.2499999999985789  0.0000000000000000   F   F   F
  0.8333333333333357  0.3333333333333357  0.0000000000000000   F   F   F
  0.9166666666622731  0.4166666666680854  0.0000000000000000   F   F   F
  0.5833333333325115  0.0000000000000000  0.1199752285000031   F   F   F
  0.5000000000005969  0.1666666666638292  0.1199752285000031   F   F   F
  0.6666666666663659  0.0833333333347497  0.1199752285000031   F   F   F
  0.8333333333300601  0.0000000000000000  0.1199752285000031   F   F   F
  0.7499999999981455  0.1666666666638292  0.1199752285000031   F   F   F
  0.9166666666639145  0.0833333333347497  0.1199752285000031   F   F   F
  0.5833333333344513  0.2499999999985789  0.1199752285000031   F   F   F
  0.4999999999997016  0.4166666666680854  0.1199752285000031   F   F   F
  0.6666666666633958  0.3333333333333357  0.1199752285000031   F   F   F
  0.8333333333319928  0.2499999999985789  0.1199752285000031   F   F   F
  0.7499999999972431  0.4166666666680854  0.1199752285000031   F   F   F
  0.9166666666658472  0.3333333333333357  0.1199752285000031   F   F   F
  0.5001037401581147  0.0832446525252999  0.2380548489717171   T   T   T
  0.6667425820363272  0.9998472499664274  0.2380080635717600   T   T   T
  0.5839427526543369  0.1660868144415911  0.2374568213967871   T   T   T
  0.7505979679732022  0.0825271059110075  0.2379523025451150   T   T   T
  0.9169418547295355  0.9996394119697433  0.2380114678912128   T   T   T
  0.8339516542457673  0.1661256857794897  0.2379600516802352   T   T   T
  0.4998109607253782  0.3331710629672696  0.2384447075467905   T   T   T
  0.6680190820894566  0.2483934743760618  0.2369293959088328   T   T   T
  0.5839324533659912  0.4162430454089631  0.2372056489651309   T   T   T
  0.7507619169598486  0.3326805289015709  0.2376006892406499   T   T   T
  0.9169866819302069  0.2497205024991473  0.2379964917745704   T   T   T
  0.8334728939836877  0.4165284481742693  0.2380166137153427   T   T   T
  0.5001169093396083  0.9996953485613078  0.3583053753869086   T   T   T
  0.5839969331228337  0.0820572023140172  0.3586569916224135   T   T   T
  0.6674894480940226  0.1653196107792541  0.3584938878686484   T   T   T
  0.7503398474715189  0.9994820023811267  0.3585355360874026   T   T   T
  0.8337793014008240  0.0828466095748883  0.3584662274230167   T   T   T
  0.9174547859469929  0.1660757038749243  0.3586381616465960   T   T   T
  0.5010150050340695  0.2469703756949977  0.3573370108178391   T   T   T
  0.5870528527990978  0.3308173050480977  0.3546701107640307   T   T   T
  0.6692172218646473  0.4157249622684340  0.3570995327097692   T   T   T
  0.7518256593953111  0.2487911996840421  0.3585068493459572   T   T   T
  0.8346912255907840  0.3325846334555357  0.3584912771524097   T   T   T
  0.9169451588411188  0.4164619720127041  0.3583566926603315   T   T   T
  0.4999999999989626  0.4999999999971649  0.0000000000000000   F   F   F
  0.5833333333328170  0.5833333333319146  0.0000000000000000   F   F   F
  0.6666666666666643  0.6666666666666643  0.0000000000000000   F   F   F
  0.7500000000014211  0.4999999999971649  0.0000000000000000   F   F   F
  0.8333333333303585  0.5833333333319146  0.0000000000000000   F   F   F
  0.9166666666642129  0.6666666666666643  0.0000000000000000   F   F   F
  0.4999999999980602  0.7500000000014211  0.0000000000000000   F   F   F
  0.5833333333347497  0.8333333333305006  0.0000000000000000   F   F   F
  0.6666666666636942  0.9166666666652503  0.0000000000000000   F   F   F
  0.7499999999956088  0.7500000000014211  0.0000000000000000   F   F   F
  0.8333333333322983  0.8333333333305006  0.0000000000000000   F   F   F
  0.9166666666661456  0.9166666666652503  0.0000000000000000   F   F   F
  0.5833333333314741  0.4999999999971649  0.1199752285000031   F   F   F
  0.4999999999967244  0.6666666666666643  0.1199752285000031   F   F   F
  0.6666666666653285  0.5833333333319146  0.1199752285000031   F   F   F
  0.8333333333339326  0.4999999999971649  0.1199752285000031   F   F   F
  0.7499999999991829  0.6666666666666643  0.1199752285000031   F   F   F
  0.9166666666628700  0.5833333333319146  0.1199752285000031   F   F   F
  0.5833333333305788  0.7500000000014211  0.1199752285000031   F   F   F
  0.4999999999986642  0.9166666666652503  0.1199752285000031   F   F   F
  0.6666666666672683  0.8333333333305006  0.1199752285000031   F   F   F
  0.8333333333281203  0.7500000000014211  0.1199752285000031   F   F   F
  0.7499999999962057  0.9166666666652503  0.1199752285000031   F   F   F
  0.9166666666648098  0.8333333333305006  0.1199752285000031   F   F   F
  0.5000229445507938  0.5837880011520300  0.2375419550847198   T   T   T
  0.6669624647292337  0.5001426927736884  0.2376599025498455   T   T   T
  0.5834220400142416  0.6669300530346113  0.2378970416930948   T   T   T
  0.7500794961913860  0.5833259271364207  0.2380263254840268   T   T   T
  0.9165818329432014  0.4999547190388862  0.2380464833710745   T   T   T
  0.8333278783211945  0.6666700149195296  0.2380464976013799   T   T   T
  0.5000472022058120  0.8334110630860331  0.2380361015995742   T   T   T
  0.6667278261020799  0.7499847921584469  0.2380297768106978   T   T   T
  0.5833595946579005  0.9166164395984235  0.2380065910846557   T   T   T
  0.7500762880032954  0.8332264168609470  0.2380263485526531   T   T   T
  0.9167584989984916  0.7499458841978727  0.2380537385823243   T   T   T
  0.8334551507848272  0.9163662553555542  0.2380110432718198   T   T   T
  0.5026600788903152  0.4997007210371119  0.3558244303455239   T   T   T
  0.5846245098851557  0.5834468170844853  0.3581835684533051   T   T   T
  0.6670807259059018  0.6667540021689872  0.3585578389782330   T   T   T
  0.7506929815530019  0.4998405683901921  0.3584175917474046   T   T   T
  0.8334201555319533  0.5833131677017497  0.3584171351199128   T   T   T
  0.9162542904228912  0.6668764840765560  0.3585915300774477   T   T   T
  0.5004879989249812  0.7502270208826958  0.3585490588956321   T   T   T
  0.5835141907316022  0.8332326356332201  0.3584368526875748   T   T   T
  0.6668876226295767  0.9161903958041872  0.3583950884073999   T   T   T
  0.7500684360504147  0.7499314939622447  0.3585761314904844   T   T   T
  0.8332973620375240  0.8332059411937783  0.3584974155841255   T   T   T
  0.9167191376885540  0.9164688078264133  0.3583613502208164   T   T   T
  0.5842006715392583  0.4407295054553539  0.5264517845848076   T   T   T
  0.5042775047990717  0.4588671428870112  0.5132439570228310   T   T   T
  0.4434739357927706  0.5333485415824274  0.5116813899537632   T   T   T
  0.3676760221210885  0.5513129148829643  0.5051507053281054   T   T   T
  0.3510343922336321  0.4918987470554904  0.5008619642412937   T   T   T
  0.4118575321362289  0.4162530464581635  0.4943234877824448   T   T   T
  0.4876786269971529  0.3992643483774411  0.5051311200590042   T   T   T
  0.5445192095017430  0.3251223513093451  0.5094445279549863   T   T   T
  0.2778406144669535  0.5062841485165738  0.5046808008855248   T   T   T
  0.4557473622986243  0.5795182239660257  0.5172851627608337   T   T   T
  0.3218421772432566  0.6098500683863955  0.5101429443651903   T   T   T
  0.3995054386193997  0.3698559464634836  0.4949383316625439   T   T   T
  0.5990152082989860  0.3133126041238216  0.5047285170867212   T   T   T
  0.5345564370314333  0.2843796354498736  0.4909070670107369   T   T   T
  0.2349386867773159  0.5599372623067336  0.4960825383178592   T   T   T
  0.2664645648375935  0.4644922865625742  0.4927210522013249   T   T   T
  0.6058616091183184  0.4092417903607320  0.5737532890281157   T   T   T
  0.5878073670949902  0.4926761349509770  0.5291874010948819   T   T   T
  0.6232507441650185  0.4051246805469459  0.4862944799338129   T   T   T
 
  0.00000000E+00  0.00000000E+00  0.00000000E+00
  0.00000000E+00  0.00000000E+00  0.00000000E+00
  0.00000000E+00  0.00000000E+00  0.00000000E+00
  0.00000000E+00  0.00000000E+00  0.00000000E+00
  0.00000000E+00  0.00000000E+00  0.00000000E+00
  0.00000000E+00  0.00000000E+00  0.00000000E+00
  0.00000000E+00  0.00000000E+00  0.00000000E+00
  0.00000000E+00  0.00000000E+00  0.00000000E+00
  0.00000000E+00  0.00000000E+00  0.00000000E+00
  0.00000000E+00  0.00000000E+00  0.00000000E+00
  0.00000000E+00  0.00000000E+00  0.00000000E+00
  0.00000000E+00  0.00000000E+00  0.00000000E+00
  0.00000000E+00  0.00000000E+00  0.00000000E+00
  0.00000000E+00  0.00000000E+00  0.00000000E+00
  0.00000000E+00  0.00000000E+00  0.00000000E+00
  0.00000000E+00  0.00000000E+00  0.00000000E+00
  0.00000000E+00  0.00000000E+00  0.00000000E+00
  0.00000000E+00  0.00000000E+00  0.00000000E+00
  0.00000000E+00  0.00000000E+00  0.00000000E+00
  0.00000000E+00  0.00000000E+00  0.00000000E+00
  0.00000000E+00  0.00000000E+00  0.00000000E+00
  0.00000000E+00  0.00000000E+00  0.00000000E+00
  0.00000000E+00  0.00000000E+00  0.00000000E+00
  0.00000000E+00  0.00000000E+00  0.00000000E+00
  0.00000000E+00  0.00000000E+00  0.00000000E+00
  0.00000000E+00  0.00000000E+00  0.00000000E+00
  0.00000000E+00  0.00000000E+00  0.00000000E+00
  0.00000000E+00  0.00000000E+00  0.00000000E+00
  0.00000000E+00  0.00000000E+00  0.00000000E+00
  0.00000000E+00  0.00000000E+00  0.00000000E+00
  0.00000000E+00  0.00000000E+00  0.00000000E+00
  0.00000000E+00  0.00000000E+00  0.00000000E+00
  0.00000000E+00  0.00000000E+00  0.00000000E+00
  0.00000000E+00  0.00000000E+00  0.00000000E+00
  0.00000000E+00  0.00000000E+00  0.00000000E+00
  0.00000000E+00  0.00000000E+00  0.00000000E+00
  0.00000000E+00  0.00000000E+00  0.00000000E+00
  0.00000000E+00  0.00000000E+00  0.00000000E+00
  0.00000000E+00  0.00000000E+00  0.00000000E+00
  0.00000000E+00  0.00000000E+00  0.00000000E+00
  0.00000000E+00  0.00000000E+00  0.00000000E+00
  0.00000000E+00  0.00000000E+00  0.00000000E+00
  0.00000000E+00  0.00000000E+00  0.00000000E+00
  0.00000000E+00  0.00000000E+00  0.00000000E+00
  0.00000000E+00  0.00000000E+00  0.00000000E+00
  0.00000000E+00  0.00000000E+00  0.00000000E+00
  0.00000000E+00  0.00000000E+00  0.00000000E+00
  0.00000000E+00  0.00000000E+00  0.00000000E+00
  0.00000000E+00  0.00000000E+00  0.00000000E+00
  0.00000000E+00  0.00000000E+00  0.00000000E+00
  0.00000000E+00  0.00000000E+00  0.00000000E+00
  0.00000000E+00  0.00000000E+00  0.00000000E+00
  0.00000000E+00  0.00000000E+00  0.00000000E+00
  0.00000000E+00  0.00000000E+00  0.00000000E+00
  0.00000000E+00  0.00000000E+00  0.00000000E+00
  0.00000000E+00  0.00000000E+00  0.00000000E+00
  0.00000000E+00  0.00000000E+00  0.00000000E+00
  0.00000000E+00  0.00000000E+00  0.00000000E+00
  0.00000000E+00  0.00000000E+00  0.00000000E+00
  0.00000000E+00  0.00000000E+00  0.00000000E+00
  0.00000000E+00  0.00000000E+00  0.00000000E+00
  0.00000000E+00  0.00000000E+00  0.00000000E+00
  0.00000000E+00  0.00000000E+00  0.00000000E+00
  0.00000000E+00  0.00000000E+00  0.00000000E+00
  0.00000000E+00  0.00000000E+00  0.00000000E+00
  0.00000000E+00  0.00000000E+00  0.00000000E+00
  0.00000000E+00  0.00000000E+00  0.00000000E+00
  0.00000000E+00  0.00000000E+00  0.00000000E+00
  0.00000000E+00  0.00000000E+00  0.00000000E+00
  0.00000000E+00  0.00000000E+00  0.00000000E+00
  0.00000000E+00  0.00000000E+00  0.00000000E+00
  0.00000000E+00  0.00000000E+00  0.00000000E+00
  0.00000000E+00  0.00000000E+00  0.00000000E+00
  0.00000000E+00  0.00000000E+00  0.00000000E+00
  0.00000000E+00  0.00000000E+00  0.00000000E+00
  0.00000000E+00  0.00000000E+00  0.00000000E+00
  0.00000000E+00  0.00000000E+00  0.00000000E+00
  0.00000000E+00  0.00000000E+00  0.00000000E+00
  0.00000000E+00  0.00000000E+00  0.00000000E+00
  0.00000000E+00  0.00000000E+00  0.00000000E+00
  0.00000000E+00  0.00000000E+00  0.00000000E+00
  0.00000000E+00  0.00000000E+00  0.00000000E+00
  0.00000000E+00  0.00000000E+00  0.00000000E+00
  0.00000000E+00  0.00000000E+00  0.00000000E+00
  0.00000000E+00  0.00000000E+00  0.00000000E+00
  0.00000000E+00  0.00000000E+00  0.00000000E+00
  0.00000000E+00  0.00000000E+00  0.00000000E+00
  0.00000000E+00  0.00000000E+00  0.00000000E+00
  0.00000000E+00  0.00000000E+00  0.00000000E+00
  0.00000000E+00  0.00000000E+00  0.00000000E+00
  0.00000000E+00  0.00000000E+00  0.00000000E+00
  0.00000000E+00  0.00000000E+00  0.00000000E+00
  0.00000000E+00  0.00000000E+00  0.00000000E+00
  0.00000000E+00  0.00000000E+00  0.00000000E+00
  0.00000000E+00  0.00000000E+00  0.00000000E+00
  0.00000000E+00  0.00000000E+00  0.00000000E+00
  0.00000000E+00  0.00000000E+00  0.00000000E+00
  0.00000000E+00  0.00000000E+00  0.00000000E+00
  0.00000000E+00  0.00000000E+00  0.00000000E+00
  0.00000000E+00  0.00000000E+00  0.00000000E+00
  0.00000000E+00  0.00000000E+00  0.00000000E+00
  0.00000000E+00  0.00000000E+00  0.00000000E+00
  0.00000000E+00  0.00000000E+00  0.00000000E+00
  0.00000000E+00  0.00000000E+00  0.00000000E+00
  0.00000000E+00  0.00000000E+00  0.00000000E+00
  0.00000000E+00  0.00000000E+00  0.00000000E+00
  0.00000000E+00  0.00000000E+00  0.00000000E+00
  0.00000000E+00  0.00000000E+00  0.00000000E+00
  0.00000000E+00  0.00000000E+00  0.00000000E+00
  0.00000000E+00  0.00000000E+00  0.00000000E+00
  0.00000000E+00  0.00000000E+00  0.00000000E+00
  0.00000000E+00  0.00000000E+00  0.00000000E+00
  0.00000000E+00  0.00000000E+00  0.00000000E+00
  0.00000000E+00  0.00000000E+00  0.00000000E+00
  0.00000000E+00  0.00000000E+00  0.00000000E+00
  0.00000000E+00  0.00000000E+00  0.00000000E+00
  0.00000000E+00  0.00000000E+00  0.00000000E+00
  0.00000000E+00  0.00000000E+00  0.00000000E+00
  0.00000000E+00  0.00000000E+00  0.00000000E+00
  0.00000000E+00  0.00000000E+00  0.00000000E+00
  0.00000000E+00  0.00000000E+00  0.00000000E+00
  0.00000000E+00  0.00000000E+00  0.00000000E+00
  0.00000000E+00  0.00000000E+00  0.00000000E+00
  0.00000000E+00  0.00000000E+00  0.00000000E+00
  0.00000000E+00  0.00000000E+00  0.00000000E+00
  0.00000000E+00  0.00000000E+00  0.00000000E+00
  0.00000000E+00  0.00000000E+00  0.00000000E+00
  0.00000000E+00  0.00000000E+00  0.00000000E+00
  0.00000000E+00  0.00000000E+00  0.00000000E+00
  0.00000000E+00  0.00000000E+00  0.00000000E+00
  0.00000000E+00  0.00000000E+00  0.00000000E+00
  0.00000000E+00  0.00000000E+00  0.00000000E+00
  0.00000000E+00  0.00000000E+00  0.00000000E+00
  0.00000000E+00  0.00000000E+00  0.00000000E+00
  0.00000000E+00  0.00000000E+00  0.00000000E+00
  0.00000000E+00  0.00000000E+00  0.00000000E+00
  0.00000000E+00  0.00000000E+00  0.00000000E+00
  0.00000000E+00  0.00000000E+00  0.00000000E+00
  0.00000000E+00  0.00000000E+00  0.00000000E+00
  0.00000000E+00  0.00000000E+00  0.00000000E+00
  0.00000000E+00  0.00000000E+00  0.00000000E+00
  0.00000000E+00  0.00000000E+00  0.00000000E+00
  0.00000000E+00  0.00000000E+00  0.00000000E+00
  0.00000000E+00  0.00000000E+00  0.00000000E+00
  0.00000000E+00  0.00000000E+00  0.00000000E+00
  0.00000000E+00  0.00000000E+00  0.00000000E+00
  0.00000000E+00  0.00000000E+00  0.00000000E+00
  0.00000000E+00  0.00000000E+00  0.00000000E+00
  0.00000000E+00  0.00000000E+00  0.00000000E+00
  0.00000000E+00  0.00000000E+00  0.00000000E+00
  0.00000000E+00  0.00000000E+00  0.00000000E+00
  0.00000000E+00  0.00000000E+00  0.00000000E+00
  0.00000000E+00  0.00000000E+00  0.00000000E+00
  0.00000000E+00  0.00000000E+00  0.00000000E+00
  0.00000000E+00  0.00000000E+00  0.00000000E+00
  0.00000000E+00  0.00000000E+00  0.00000000E+00
  0.00000000E+00  0.00000000E+00  0.00000000E+00
  0.00000000E+00  0.00000000E+00  0.00000000E+00
  0.00000000E+00  0.00000000E+00  0.00000000E+00
  0.00000000E+00  0.00000000E+00  0.00000000E+00
  0.00000000E+00  0.00000000E+00  0.00000000E+00
  0.00000000E+00  0.00000000E+00  0.00000000E+00
  0.00000000E+00  0.00000000E+00  0.00000000E+00
  0.00000000E+00  0.00000000E+00  0.00000000E+00
  0.00000000E+00  0.00000000E+00  0.00000000E+00
  0.00000000E+00  0.00000000E+00  0.00000000E+00
  0.00000000E+00  0.00000000E+00  0.00000000E+00
  0.00000000E+00  0.00000000E+00  0.00000000E+00
  0.00000000E+00  0.00000000E+00  0.00000000E+00
  0.00000000E+00  0.00000000E+00  0.00000000E+00
  0.00000000E+00  0.00000000E+00  0.00000000E+00
  0.00000000E+00  0.00000000E+00  0.00000000E+00
  0.00000000E+00  0.00000000E+00  0.00000000E+00
  0.00000000E+00  0.00000000E+00  0.00000000E+00
  0.00000000E+00  0.00000000E+00  0.00000000E+00
  0.00000000E+00  0.00000000E+00  0.00000000E+00
  0.00000000E+00  0.00000000E+00  0.00000000E+00
  0.00000000E+00  0.00000000E+00  0.00000000E+00
  0.00000000E+00  0.00000000E+00  0.00000000E+00
  0.00000000E+00  0.00000000E+00  0.00000000E+00
  0.00000000E+00  0.00000000E+00  0.00000000E+00
  0.00000000E+00  0.00000000E+00  0.00000000E+00
  0.00000000E+00  0.00000000E+00  0.00000000E+00
  0.00000000E+00  0.00000000E+00  0.00000000E+00
  0.00000000E+00  0.00000000E+00  0.00000000E+00
  0.00000000E+00  0.00000000E+00  0.00000000E+00
  0.00000000E+00  0.00000000E+00  0.00000000E+00
  0.00000000E+00  0.00000000E+00  0.00000000E+00
  0.00000000E+00  0.00000000E+00  0.00000000E+00
  0.00000000E+00  0.00000000E+00  0.00000000E+00
  0.00000000E+00  0.00000000E+00  0.00000000E+00
  0.00000000E+00  0.00000000E+00  0.00000000E+00
  0.00000000E+00  0.00000000E+00  0.00000000E+00
  0.00000000E+00  0.00000000E+00  0.00000000E+00
  0.00000000E+00  0.00000000E+00  0.00000000E+00
  0.00000000E+00  0.00000000E+00  0.00000000E+00
  0.00000000E+00  0.00000000E+00  0.00000000E+00
  0.00000000E+00  0.00000000E+00  0.00000000E+00
  0.00000000E+00  0.00000000E+00  0.00000000E+00
  0.00000000E+00  0.00000000E+00  0.00000000E+00
  0.00000000E+00  0.00000000E+00  0.00000000E+00
  0.00000000E+00  0.00000000E+00  0.00000000E+00
  0.00000000E+00  0.00000000E+00  0.00000000E+00
  0.00000000E+00  0.00000000E+00  0.00000000E+00
  0.00000000E+00  0.00000000E+00  0.00000000E+00
  0.00000000E+00  0.00000000E+00  0.00000000E+00
  0.00000000E+00  0.00000000E+00  0.00000000E+00
  0.00000000E+00  0.00000000E+00  0.00000000E+00
  0.00000000E+00  0.00000000E+00  0.00000000E+00
  0.00000000E+00  0.00000000E+00  0.00000000E+00
  0.00000000E+00  0.00000000E+00  0.00000000E+00
