Au  O  N  C  H Au 
 1.0000000000000000
    11.7551239999000003    0.0000000000000000    0.0000000000000000
     0.0000000000000000    8.8163429998999998    0.0000000000000000
     0.0000000000000000    0.0000000000000000   20.0000000000000000
 Au  O   N   C   H   Au 
  24   2   4   8  10  24
Selective dynamics
Cartesian
  1.4693905000000285  1.4693904999999752  4.1384681143000543   T   T   T
  4.4081715000000026  1.4693904999999752  4.1384681143000543   T   T   T
  7.3469524998999978  1.4693904999999752  4.1384681143000543   T   T   T
 10.2857334998999708  1.4693904999999752  4.1384681143000543   T   T   T
  1.4693905000000285  4.4081714999999901  4.1384681143000543   T   T   T
  4.4081715000000026  4.4081714999999901  4.1384681143000543   T   T   T
  7.3469524998999978  4.4081714999999901  4.1384681143000543   T   T   T
 10.2857334998999708  4.4081714999999901  4.1384681143000543   T   T   T
  1.4693905000000285  7.3469524999000244  4.1384681143000543   T   T   T
  4.4081715000000026  7.3469524999000244  4.1384681143000543   T   T   T
  7.3469524998999978  7.3469524999000244  4.1384681143000543   T   T   T
 10.2857334998999708  7.3469524999000244  4.1384681143000543   T   T   T
  0.0000000000000000  0.0000000000000000  6.1771390580000221   T   T   T
  2.9387809999999743  0.0000000000000000  6.1771390580000221   T   T   T
  5.8775619998999682  0.0000000000000000  6.1771390580000221   T   T   T
  8.8163429999000265  0.0000000000000000  6.1771390580000221   T   T   T
  0.0000000000000000  2.9387810000000139  6.1771390580000221   T   T   T
  2.9387809999999743  2.9387810000000139  6.1771390580000221   T   T   T
  5.8775619998999682  2.9387810000000139  6.1771390580000221   T   T   T
  8.8163429999000265  2.9387810000000139  6.1771390580000221   T   T   T
  0.0000000000000000  5.8775619998999860  6.1771390580000221   T   T   T
  2.9387809999999743  5.8775619998999860  6.1771390580000221   T   T   T
  5.8775619998999682  5.8775619998999860  6.1771390580000221   T   T   T
  8.8163429999000265  5.8775619998999860  6.1771390580000221   T   T   T
  4.9719950444455039  5.5469365706454798  9.1138589110445007   T   T   T
  1.2368504367440707  2.8069457890835112  9.8587268567331030   T   T   T
  3.2962442614169500  1.7824837786870884  9.5073236493576854   T   T   T
  6.5225676719417365  2.9984110706721054  8.8898318750758758   T   T   T
  3.0867458485634147  4.1953878589340921  9.4888310957425546   T   T   T
  5.5900909050360541  0.9852338758145920  9.1077106516622095   T   T   T
  5.1954743085232522  3.2157091480629276  9.1263590200991622   T   T   T
  4.6486761290231184  1.9682176345121911  9.2558018048120676   T   T   T
  4.4627056550323791  4.4356808119081483  9.2316346577172546   T   T   T
  2.4483350720435118  2.9110172256090756  9.6351425671846496   T   T   T
  6.7112444487522129  1.6405069443641878  8.8878779947472406   T   T   T
  2.7518935721398954  0.4367167091543358  9.6390324632040887   T   T   T
  7.5513402315894558  3.9887924735686080  8.6795001672602474   T   T   T
  2.2306548069975358  5.3700720379036815  9.6182801136190488   T   T   T
  7.6798585679013467  1.1885161833593059  8.7222636531243687   T   T   T
  2.9327051663969828 -0.1117666127144927  8.7094027503538882   T   T   T
  1.6768980184749287  0.4532403026242235  9.8350875076671009   T   T   T
  3.2542618947946051 -0.0695064280950897 10.4691666172457367   T   T   T
  8.5102665275632248  3.4903032158112666  8.5161343544640520   T   T   T
  7.2878270295767402  4.5800353547402342  7.7991138044462387   T   T   T
  7.6104961058945015  4.6206804862664681  9.5690837619515801   T   T   T
  2.7760010701407039  6.3083961559006791  9.4957462698821420   T   T   T
  1.7605942520371638  5.3519454107228377 10.6067600122803167   T   T   T
  1.4400447451459026  5.3106090169625384  8.8634658786979585   T   T   T
  1.4693905000000285  1.4693904999999752  0.0000000000000000   F   F   F
  4.4081715000000026  1.4693904999999752  0.0000000000000000   F   F   F
  7.3469524998999978  1.4693904999999752  0.0000000000000000   F   F   F
 10.2857334998999708  1.4693904999999752  0.0000000000000000   F   F   F
  1.4693905000000285  4.4081714999999901  0.0000000000000000   F   F   F
  4.4081715000000026  4.4081714999999901  0.0000000000000000   F   F   F
  7.3469524998999978  4.4081714999999901  0.0000000000000000   F   F   F
 10.2857334998999708  4.4081714999999901  0.0000000000000000   F   F   F
  1.4693905000000285  7.3469524999000244  0.0000000000000000   F   F   F
  4.4081715000000026  7.3469524999000244  0.0000000000000000   F   F   F
  7.3469524998999978  7.3469524999000244  0.0000000000000000   F   F   F
 10.2857334998999708  7.3469524999000244  0.0000000000000000   F   F   F
  0.0000000000000000  0.0000000000000000  2.0780319735000319   F   F   F
  2.9387809999999743  0.0000000000000000  2.0780319735000319   F   F   F
  5.8775619998999682  0.0000000000000000  2.0780319735000319   F   F   F
  8.8163429999000265  0.0000000000000000  2.0780319735000319   F   F   F
  0.0000000000000000  2.9387810000000139  2.0780319735000319   F   F   F
  2.9387809999999743  2.9387810000000139  2.0780319735000319   F   F   F
  5.8775619998999682  2.9387810000000139  2.0780319735000319   F   F   F
  8.8163429999000265  2.9387810000000139  2.0780319735000319   F   F   F
  0.0000000000000000  5.8775619998999860  2.0780319735000319   F   F   F
  2.9387809999999743  5.8775619998999860  2.0780319735000319   F   F   F
  5.8775619998999682  5.8775619998999860  2.0780319735000319   F   F   F
  8.8163429999000265  5.8775619998999860  2.0780319735000319   F   F   F
