H  C                                    
   1.00000000000000     
    25.0000000000000000    0.0000000000000000    0.0000000000000000
     0.0000000000000000   25.0000000000000000    0.0000000000000000
     0.0000000000000000    0.0000000000000000   25.0000000000000000
   H    C 
    32    15
Selective dynamics
Direct
  0.3700232605442740  0.5904036179899498  0.5560528732632669   T   T   T
  0.3454789347523528  0.6286879009188455  0.6098562133055782   T   T   T
  0.4355988746266342  0.6422448948403384  0.6461301992343673   T   T   T
  0.4328738556820062  0.6636719247175872  0.5786715225115886   T   T   T
  0.4793110219178656  0.5581926765474778  0.6192838122786111   T   T   T
  0.5292645239253518  0.6442571242839950  0.6408728784901130   T   T   T
  0.5349623407267574  0.6559075563152039  0.5712516984282759   T   T   T
  0.5842015413720869  0.5673041743969268  0.5634373828263064   T   T   T
  0.6325380336767440  0.6509127037737481  0.6384326438279313   T   T   T
  0.6277941524066156  0.6574588951917298  0.5680796064820391   T   T   T
  0.6908743375151717  0.5703018036391496  0.6262226643896196   T   T   T
  0.7264080602870582  0.6614404610425225  0.6406440455026813   T   T   T
  0.7279455878367423  0.6727087517110976  0.5707067535542139   T   T   T
  0.7963396460114293  0.6020732262590610  0.5596555591001676   T   T   T
  0.8242127308137446  0.6962081621984955  0.5785067871209443   T   T   T
  0.8709506947716462  0.6495498675134795  0.6055725783134654   T   T   T
  0.8242289592183092  0.6821834941316742  0.6483484121703627   T   T   T
  0.3994486286230056  0.5179154641218797  0.6183835859839586   T   T   T
  0.3310975079485127  0.5330876617847211  0.6306019141890288   T   T   T
  0.3815408214070526  0.5576719981802826  0.6744790980482923   T   T   T
  0.4779248408671991  0.6046123996469545  0.5056031136987906   T   T   T
  0.4411331697508556  0.5476779474578973  0.5274826408261520   T   T   T
  0.5120252822981537  0.5452324535871703  0.5252175197104634   T   T   T
  0.5865111330600811  0.5740514363463676  0.6860357039377672   T   T   T
  0.6215046326409884  0.5261771771961938  0.6465581553520263   T   T   T
  0.5506209326570605  0.5250955634858284  0.6487287864771324   T   T   T
  0.6874747558157389  0.6006152787136665  0.5072696415095007   T   T   T
  0.6598954629649418  0.5412931843802460  0.5354204882933458   T   T   T
  0.7301388836362209  0.5513130779256636  0.5360011928845922   T   T   T
  0.7881097596975886  0.5893438458760972  0.6815633875324717   T   T   T
  0.8394347467250504  0.5607861080923919  0.6411342836904321   T   T   T
  0.7719126528824964  0.5397423731020652  0.6331106423764837   T   T   T
  0.3771053008347381  0.6001742813532767  0.5984571705163565   T   T   T
  0.4315268643598857  0.6278511720718282  0.6045545133092980   T   T   T
  0.3719476465683840  0.5493609201680748  0.6322697042532194   T   T   T
  0.4801517104639479  0.5925888497477554  0.5916680795083072   T   T   T
  0.5319964774324581  0.6239204441272179  0.6016715151214010   T   T   T
  0.4776979310199649  0.5711587175287193  0.5343602582810963   T   T   T
  0.5836483767996342  0.5906807944829331  0.6008327104919428   T   T   T
  0.6324898430911555  0.6278954582038730  0.6006514307253007   T   T   T
  0.5856783181028039  0.5516443167171250  0.6480304688189622   T   T   T
  0.6869579123022823  0.6003446361070780  0.5941805627568029   T   T   T
  0.7320427997852095  0.6413273853665455  0.6016271122144432   T   T   T
  0.6913620444590325  0.5716305794484793  0.5402920852910794   T   T   T
  0.7892519039908937  0.6190181416141169  0.5997999902929694   T   T   T
  0.8295608597599576  0.6643061681580048  0.6083870372166368   T   T   T
  0.7976205712659209  0.5745505574682592  0.6410947258402094   T   T   T
 
  0.00000000E+00  0.00000000E+00  0.00000000E+00
  0.00000000E+00  0.00000000E+00  0.00000000E+00
  0.00000000E+00  0.00000000E+00  0.00000000E+00
  0.00000000E+00  0.00000000E+00  0.00000000E+00
  0.00000000E+00  0.00000000E+00  0.00000000E+00
  0.00000000E+00  0.00000000E+00  0.00000000E+00
  0.00000000E+00  0.00000000E+00  0.00000000E+00
  0.00000000E+00  0.00000000E+00  0.00000000E+00
  0.00000000E+00  0.00000000E+00  0.00000000E+00
  0.00000000E+00  0.00000000E+00  0.00000000E+00
  0.00000000E+00  0.00000000E+00  0.00000000E+00
  0.00000000E+00  0.00000000E+00  0.00000000E+00
  0.00000000E+00  0.00000000E+00  0.00000000E+00
  0.00000000E+00  0.00000000E+00  0.00000000E+00
  0.00000000E+00  0.00000000E+00  0.00000000E+00
  0.00000000E+00  0.00000000E+00  0.00000000E+00
  0.00000000E+00  0.00000000E+00  0.00000000E+00
  0.00000000E+00  0.00000000E+00  0.00000000E+00
  0.00000000E+00  0.00000000E+00  0.00000000E+00
  0.00000000E+00  0.00000000E+00  0.00000000E+00
  0.00000000E+00  0.00000000E+00  0.00000000E+00
  0.00000000E+00  0.00000000E+00  0.00000000E+00
  0.00000000E+00  0.00000000E+00  0.00000000E+00
  0.00000000E+00  0.00000000E+00  0.00000000E+00
  0.00000000E+00  0.00000000E+00  0.00000000E+00
  0.00000000E+00  0.00000000E+00  0.00000000E+00
  0.00000000E+00  0.00000000E+00  0.00000000E+00
  0.00000000E+00  0.00000000E+00  0.00000000E+00
  0.00000000E+00  0.00000000E+00  0.00000000E+00
  0.00000000E+00  0.00000000E+00  0.00000000E+00
  0.00000000E+00  0.00000000E+00  0.00000000E+00
  0.00000000E+00  0.00000000E+00  0.00000000E+00
  0.00000000E+00  0.00000000E+00  0.00000000E+00
  0.00000000E+00  0.00000000E+00  0.00000000E+00
  0.00000000E+00  0.00000000E+00  0.00000000E+00
  0.00000000E+00  0.00000000E+00  0.00000000E+00
  0.00000000E+00  0.00000000E+00  0.00000000E+00
  0.00000000E+00  0.00000000E+00  0.00000000E+00
  0.00000000E+00  0.00000000E+00  0.00000000E+00
  0.00000000E+00  0.00000000E+00  0.00000000E+00
  0.00000000E+00  0.00000000E+00  0.00000000E+00
  0.00000000E+00  0.00000000E+00  0.00000000E+00
  0.00000000E+00  0.00000000E+00  0.00000000E+00
  0.00000000E+00  0.00000000E+00  0.00000000E+00
  0.00000000E+00  0.00000000E+00  0.00000000E+00
  0.00000000E+00  0.00000000E+00  0.00000000E+00
  0.00000000E+00  0.00000000E+00  0.00000000E+00
