Pt  H  C                                
   1.00000000000000     
    19.4393438986000007    0.0000000000000000    0.0000000000000000
     9.7196719493000003   16.8349656490999990    0.0000000000000000
     0.0000000000000000    0.0000000000000000   20.0000000000000000
   Pt   H    C 
   192    32    15
Selective dynamics
Direct
  0.0000000000000000  0.0000000000000000  0.0000000000000000   F   F   F
  0.0833333333318009  0.0833333333338260  0.0000000000000000   F   F   F
  0.1666666666687462  0.1666666666676591  0.0000000000000000   F   F   F
  0.2500000000025722  0.0000000000000000  0.0000000000000000   F   F   F
  0.3333333333343731  0.0833333333338260  0.0000000000000000   F   F   F
  0.4166666666661740  0.1666666666676591  0.0000000000000000   F   F   F
  0.9999999999979750  0.2500000000014850  0.0000000000000000   F   F   F
  0.0833333333349131  0.3333333333353110  0.0000000000000000   F   F   F
  0.1666666666667140  0.4166666666691441  0.0000000000000000   F   F   F
  0.2500000000005400  0.2500000000014850  0.0000000000000000   F   F   F
  0.3333333333323409  0.3333333333353110  0.0000000000000000   F   F   F
  0.4166666666641419  0.4166666666691441  0.0000000000000000   F   F   F
  0.0833333333341884  0.0000000000000000  0.1145474324399984   F   F   F
  0.0000000000003624  0.1666666666676591  0.1145474324399984   F   F   F
  0.1666666666659893  0.0833333333338260  0.1145474324399984   F   F   F
  0.3333333333316162  0.0000000000000000  0.1145474324399984   F   F   F
  0.2499999999977902  0.1666666666676591  0.1145474324399984   F   F   F
  0.4166666666685614  0.0833333333338260  0.1145474324399984   F   F   F
  0.0833333333321633  0.2500000000014850  0.1145474324399984   F   F   F
  0.9999999999983373  0.4166666666691441  0.1145474324399984   F   F   F
  0.1666666666639642  0.3333333333353110  0.1145474324399984   F   F   F
  0.3333333333347355  0.2500000000014850  0.1145474324399984   F   F   F
  0.2500000000009024  0.4166666666691441  0.1145474324399984   F   F   F
  0.4166666666665364  0.3333333333353110  0.1145474324399984   F   F   F
  0.9999420381210341  0.0834461836886024  0.2270708488712285   T   T   T
  0.1665376755536428  0.0002552229194956  0.2270229964315260   T   T   T
  0.0831497311390815  0.1668014750490348  0.2270967421596566   T   T   T
  0.2498204114645334  0.0836872603236840  0.2270430291852384   T   T   T
  0.4167109232841996  0.0005015013294867  0.2270530763304512   T   T   T
  0.3332900145188957  0.1668130939055630  0.2270291599031473   T   T   T
  0.9998403602027784  0.3334691675776875  0.2271209279186746   T   T   T
  0.1663690899373741  0.2501430230643941  0.2270395759478215   T   T   T
  0.0830933207719154  0.4167569139529161  0.2269973303957566   T   T   T
  0.2497098893071003  0.3333351694812369  0.2267741953728079   T   T   T
  0.4169844139209098  0.2497963528448578  0.2265639440659647   T   T   T
  0.3331301831166114  0.4169312606434182  0.2268596327003362   T   T   T
  0.9998834593609354  0.0001005550854124  0.3416216749727691   T   T   T
  0.0831916368537729  0.0835214722893551  0.3416556862043633   T   T   T
  0.1665395428883212  0.1667494325410086  0.3416403712127060   T   T   T
  0.2497363125568900  0.0004166285542857  0.3415323410653978   T   T   T
  0.3332447366802159  0.0834173121955786  0.3416179866282719   T   T   T
  0.4168892191400141  0.1662025197169332  0.3413718105630431   T   T   T
  0.9998964638392269  0.2500840411533906  0.3416502719558664   T   T   T
  0.0832268132916740  0.3333983776591249  0.3416550601150129   T   T   T
  0.1664644801088204  0.4165402969227055  0.3414877443043160   T   T   T
  0.2498562487659834  0.2497924873237312  0.3415073417831951   T   T   T
  0.3337116185103687  0.3322550386665684  0.3399839642169907   T   T   T
  0.4173487335167699  0.4160248385451452  0.3408923098869301   T   T   T
  0.0000000000040572  0.4999999999970299  0.0000000000000000   F   F   F
  0.0833333333358581  0.5833333333308559  0.0000000000000000   F   F   F
  0.1666666666676591  0.6666666666646890  0.0000000000000000   F   F   F
  0.2500000000014850  0.4999999999970299  0.0000000000000000   F   F   F
  0.3333333333332860  0.5833333333308559  0.0000000000000000   F   F   F
  0.4166666666702312  0.6666666666646890  0.0000000000000000   F   F   F
  0.0000000000020250  0.7499999999985150  0.0000000000000000   F   F   F
  0.0833333333338260  0.8333333333323409  0.0000000000000000   F   F   F
  0.1666666666656269  0.9166666666661740  0.0000000000000000   F   F   F
  0.2499999999994529  0.7499999999985150  0.0000000000000000   F   F   F
  0.3333333333363981  0.8333333333323409  0.0000000000000000   F   F   F
  0.4166666666681991  0.9166666666661740  0.0000000000000000   F   F   F
  0.0833333333331012  0.4999999999970299  0.1145474324399984   F   F   F
  0.9999999999992752  0.6666666666646890  0.1145474324399984   F   F   F
  0.1666666666700465  0.5833333333308559  0.1145474324399984   F   F   F
  0.3333333333356734  0.4999999999970299  0.1145474324399984   F   F   F
  0.2500000000018474  0.6666666666646890  0.1145474324399984   F   F   F
  0.4166666666674743  0.5833333333308559  0.1145474324399984   F   F   F
  0.0833333333362205  0.7499999999985150  0.1145474324399984   F   F   F
  0.0000000000023874  0.9166666666661740  0.1145474324399984   F   F   F
  0.1666666666680214  0.8333333333323409  0.1145474324399984   F   F   F
  0.3333333333336483  0.7499999999985150  0.1145474324399984   F   F   F
  0.2499999999998153  0.9166666666661740  0.1145474324399984   F   F   F
  0.4166666666654493  0.8333333333323409  0.1145474324399984   F   F   F
  0.9999666523339755  0.5832429380074132  0.2271152188160538   T   T   T
  0.1666787625226864  0.4999760077089423  0.2273871174394933   T   T   T
  0.0830132395138213  0.6665625056272433  0.2272062217575703   T   T   T
  0.2495885220352693  0.5831966745615759  0.2271292419001222   T   T   T
  0.4166203755297469  0.5001110653274157  0.2267798843329168   T   T   T
  0.3327321325246402  0.6667415484485228  0.2263569504849773   T   T   T
  0.9997121945111287  0.8333831942752938  0.2271019108277929   T   T   T
  0.1659847449462361  0.7499529301072314  0.2266946189373319   T   T   T
  0.0831217085169034  0.9167299725050673  0.2270369805555796   T   T   T
  0.2496441196495662  0.8336894027724963  0.2266092810505965   T   T   T
  0.4165218415567473  0.7507162486818781  0.2258665947657876   T   T   T
  0.3332586064150757  0.9174500059150531  0.2266677573252913   T   T   T
  0.0000626558868808  0.4999909679918446  0.3417490349315304   T   T   T
  0.0831515491741611  0.5834142926324847  0.3418595599523095   T   T   T
  0.1662592477344357  0.6669694100547534  0.3418049739720702   T   T   T
  0.2500617447052063  0.4999248270252253  0.3426095120082589   T   T   T
  0.3330389859638310  0.5831446357093690  0.3413253733934129   T   T   T
  0.4164677408208196  0.6680121784425930  0.3383344382367302   T   T   T
  0.9998804975547061  0.7500186070982388  0.3416821734746529   T   T   T
  0.0829535407126440  0.8335307229709025  0.3415974376739296   T   T   T
  0.1661971860390763  0.9171695127823972  0.3414555498994055   T   T   T
  0.2487418086451117  0.7508432592873289  0.3403071768913654   T   T   T
  0.3323876680031155  0.8348163220549741  0.3404151331783857   T   T   T
  0.4164676345510012  0.9172061168861375  0.3415590751749232   T   T   T
  0.5000000000000000  0.0000000000000000  0.0000000000000000   F   F   F
  0.5833333333318009  0.0833333333338260  0.0000000000000000   F   F   F
  0.6666666666687462  0.1666666666676591  0.0000000000000000   F   F   F
  0.7500000000025722  0.0000000000000000  0.0000000000000000   F   F   F
  0.8333333333343731  0.0833333333338260  0.0000000000000000   F   F   F
  0.9166666666661740  0.1666666666676591  0.0000000000000000   F   F   F
  0.4999999999979678  0.2500000000014850  0.0000000000000000   F   F   F
  0.5833333333349131  0.3333333333353110  0.0000000000000000   F   F   F
  0.6666666666667140  0.4166666666691441  0.0000000000000000   F   F   F
  0.7500000000005400  0.2500000000014850  0.0000000000000000   F   F   F
  0.8333333333323409  0.3333333333353110  0.0000000000000000   F   F   F
  0.9166666666641419  0.4166666666691441  0.0000000000000000   F   F   F
  0.5833333333341884  0.0000000000000000  0.1145474324399984   F   F   F
  0.5000000000003624  0.1666666666676591  0.1145474324399984   F   F   F
  0.6666666666659893  0.0833333333338260  0.1145474324399984   F   F   F
  0.8333333333316162  0.0000000000000000  0.1145474324399984   F   F   F
  0.7499999999977902  0.1666666666676591  0.1145474324399984   F   F   F
  0.9166666666685614  0.0833333333338260  0.1145474324399984   F   F   F
  0.5833333333321633  0.2500000000014850  0.1145474324399984   F   F   F
  0.4999999999983302  0.4166666666691441  0.1145474324399984   F   F   F
  0.6666666666639642  0.3333333333353110  0.1145474324399984   F   F   F
  0.8333333333347355  0.2500000000014850  0.1145474324399984   F   F   F
  0.7500000000009024  0.4166666666691441  0.1145474324399984   F   F   F
  0.9166666666665364  0.3333333333353110  0.1145474324399984   F   F   F
  0.5003261017384875  0.0831987986993164  0.2269920845307905   T   T   T
  0.6668805572050648  0.9998539982786301  0.2271735182024006   T   T   T
  0.5836744983929005  0.1663421714815226  0.2270637798487149   T   T   T
  0.7501720836103756  0.0832211609401793  0.2271283006761513   T   T   T
  0.9166165687630546  0.0001172391608662  0.2271208984964171   T   T   T
  0.8333654051611441  0.1666441692311562  0.2271524469132740   T   T   T
  0.5003197165506951  0.3330657736263331  0.2268068430432270   T   T   T
  0.6668502753232447  0.2497593746913855  0.2271348581012132   T   T   T
  0.5835332976877216  0.4164098181393309  0.2271841105950415   T   T   T
  0.7501919987319523  0.3330755848406414  0.2271351747798547   T   T   T
  0.9166879019254127  0.2500145979211140  0.2270706433820687   T   T   T
  0.8334635190676595  0.4166264916239424  0.2270078108171122   T   T   T
  0.5000088938241336  0.0000864453582308  0.3416671415865819   T   T   T
  0.5834333173911362  0.0832492258684589  0.3416505615341201   T   T   T
  0.6667295463534458  0.1665815009155063  0.3416873074108621   T   T   T
  0.7500223671117496  0.0000240503561996  0.3416932128159660   T   T   T
  0.8332983143937942  0.0834187417265786  0.3417455999338073   T   T   T
  0.9165963046568776  0.1667585046267926  0.3416010694317373   T   T   T
  0.5002488712400347  0.2497716464680374  0.3414797017741583   T   T   T
  0.5835973807496362  0.3329803998982371  0.3418040213825131   T   T   T
  0.6668288400175159  0.4164311559280283  0.3418686470392663   T   T   T
  0.7499675993037328  0.2500210325971958  0.3417342296838755   T   T   T
  0.8333386098662342  0.3333148286059303  0.3417024207351151   T   T   T
  0.9166033754674043  0.4167728047424537  0.3416994178953873   T   T   T
  0.5000000000040572  0.4999999999970299  0.0000000000000000   F   F   F
  0.5833333333358581  0.5833333333308559  0.0000000000000000   F   F   F
  0.6666666666676591  0.6666666666646890  0.0000000000000000   F   F   F
  0.7500000000014850  0.4999999999970299  0.0000000000000000   F   F   F
  0.8333333333332860  0.5833333333308559  0.0000000000000000   F   F   F
  0.9166666666702312  0.6666666666646890  0.0000000000000000   F   F   F
  0.5000000000020250  0.7499999999985150  0.0000000000000000   F   F   F
  0.5833333333338260  0.8333333333323409  0.0000000000000000   F   F   F
  0.6666666666656269  0.9166666666661740  0.0000000000000000   F   F   F
  0.7499999999994529  0.7499999999985150  0.0000000000000000   F   F   F
  0.8333333333363981  0.8333333333323409  0.0000000000000000   F   F   F
  0.9166666666681991  0.9166666666661740  0.0000000000000000   F   F   F
  0.5833333333331012  0.4999999999970299  0.1145474324399984   F   F   F
  0.4999999999992752  0.6666666666646890  0.1145474324399984   F   F   F
  0.6666666666700465  0.5833333333308559  0.1145474324399984   F   F   F
  0.8333333333356734  0.4999999999970299  0.1145474324399984   F   F   F
  0.7500000000018474  0.6666666666646890  0.1145474324399984   F   F   F
  0.9166666666674743  0.5833333333308559  0.1145474324399984   F   F   F
  0.5833333333362205  0.7499999999985150  0.1145474324399984   F   F   F
  0.5000000000023874  0.9166666666661740  0.1145474324399984   F   F   F
  0.6666666666680214  0.8333333333323409  0.1145474324399984   F   F   F
  0.8333333333336483  0.7499999999985150  0.1145474324399984   F   F   F
  0.7499999999998153  0.9166666666661740  0.1145474324399984   F   F   F
  0.9166666666654493  0.8333333333323409  0.1145474324399984   F   F   F
  0.5001688180764300  0.5831665520899548  0.2263911237434682   T   T   T
  0.6671242119816490  0.4994635149342848  0.2269346613219161   T   T   T
  0.5835938997421877  0.6666652609961636  0.2268948252979922   T   T   T
  0.7498091870572869  0.5834835715293192  0.2274048267633855   T   T   T
  0.9165704903243989  0.5000996393621432  0.2270531101986003   T   T   T
  0.8332928752014681  0.6666786691253132  0.2271780427912971   T   T   T
  0.5000326546026265  0.8340206812627375  0.2268038638889446   T   T   T
  0.6666630501512213  0.7498274797009259  0.2273703449414649   T   T   T
  0.5835775472617738  0.9167169747414444  0.2269844303612063   T   T   T
  0.7499772623883803  0.8333063460866937  0.2270344375532158   T   T   T
  0.9164963083192427  0.7500137798417669  0.2271609408265106   T   T   T
  0.8332867354948663  0.9166894384995223  0.2271507646139148   T   T   T
  0.5000106598363476  0.4995842422239041  0.3413384673344073   T   T   T
  0.5838738059472263  0.5826677897837395  0.3406916835320831   T   T   T
  0.6665533434986265  0.6666574721023301  0.3424613704624879   T   T   T
  0.7503381899404020  0.4994843778345132  0.3416939639464650   T   T   T
  0.8336451295348376  0.5832619478155958  0.3416512180284347   T   T   T
  0.9167019712797980  0.6666572142545090  0.3417210174319754   T   T   T
  0.4996616072740016  0.7510552240046479  0.3404992717493066   T   T   T
  0.5831181022783478  0.8339890331345051  0.3416399399590442   T   T   T
  0.6667074838666911  0.9166335725643157  0.3417533558724741   T   T   T
  0.7502540583831824  0.7501385081927596  0.3416287719677345   T   T   T
  0.8333292891532668  0.8333840431595073  0.3417194357284812   T   T   T
  0.9165550873317311  0.9167364191825449  0.3416710814987342   T   T   T
  0.6421954203358287  0.6704907079343442  0.4452413278109912   T   T   T
  0.7178207905496838  0.6530451545396301  0.5038443379514540   T   T   T
  0.6576965841791664  0.6082522431823820  0.5885384661694235   T   T   T
  0.6713077793649714  0.5565043469005047  0.5127219559491092   T   T   T
  0.5165550899847622  0.6851783309185828  0.4991495555079667   T   T   T
  0.5624287568219970  0.5223381355191495  0.5575887955376428   T   T   T
  0.5743262884625042  0.5405788356721128  0.4732137658609411   T   T   T
  0.4593481979611213  0.5510208683477166  0.4523573982625929   T   T   T
  0.4052442899032984  0.5780779039203430  0.5977938334862861   T   T   T
  0.4645723132160797  0.4852347737179125  0.5581403689395404   T   T   T
  0.3427127916458952  0.5552084799610948  0.4664719035755592   T   T   T
  0.3454709913009771  0.4616658402719168  0.5904452453538914   T   T   T
  0.4040180806730320  0.4228575679892347  0.5175449529877357   T   T   T
  0.2733299971493007  0.4773403382910014  0.4510539597471753   T   T   T
  0.3697092311183161  0.3343380918304003  0.4737762541701988   T   T   T
  0.2696160546585722  0.3529069044060857  0.4774702514682094   T   T   T
  0.3241525448374671  0.3404493376291564  0.5524583685360979   T   T   T
  0.5410440895702607  0.7831401514175116  0.5151468464088741   T   T   T
  0.6207976440493179  0.7977437397217410  0.4911208146780838   T   T   T
  0.6158191887570632  0.7678064673906837  0.5744857430416280   T   T   T
  0.5414877484253631  0.6289567268950217  0.6451724206022308   T   T   T
  0.4469042687607771  0.6911581651136532  0.6086190397370059   T   T   T
  0.5154900731024322  0.7260211552014753  0.6174381740657240   T   T   T
  0.3763486561964535  0.7094475528954611  0.5290581487784564   T   T   T
  0.3367664575148329  0.6762844861737434  0.4647695615094462   T   T   T
  0.4160551067618380  0.6953833644820336  0.4475996478932792   T   T   T
  0.2522364327249998  0.6103741037638231  0.5990531881620849   T   T   T
  0.2148153133246929  0.6363136453510754  0.5158966194378676   T   T   T
  0.2723786554406780  0.6748106910521626  0.5506167040887644   T   T   T
  0.2074544333991144  0.4755541613482498  0.5910096468932144   T   T   T
  0.1604252643993378  0.4807198966690713  0.5132043905803809   T   T   T
  0.1730637685630826  0.5610476353107289  0.5393562788598933   T   T   T
  0.6538885183503249  0.6737013731438994  0.5005408993112079   T   T   T
  0.6357793880191475  0.6151049602958907  0.5366181670510642   T   T   T
  0.6050566476598455  0.7604076765616474  0.5215852610896679   T   T   T
  0.5468739670352818  0.6387379658982881  0.5375909258139177   T   T   T
  0.5366872536890652  0.5678387835321285  0.5179036703849407   T   T   T
  0.5100482135417282  0.6735986339484252  0.6058481586000513   T   T   T
  0.4520542099269629  0.5837580004704722  0.5003649409002868   T   T   T
  0.4179891228602302  0.5472763577209731  0.5490420695069417   T   T   T
  0.3919813942353104  0.6703343390111501  0.4851302411031424   T   T   T
  0.3420357645516868  0.5496040443885745  0.5221504246168482   T   T   T
  0.3456784098423628  0.4700409890626598  0.5356848342949572   T   T   T
  0.2660106378241531  0.6218382582384153  0.5482479347195562   T   T   T
  0.2821435080871632  0.4550111459456800  0.5044975185620933   T   T   T
  0.3130921703702356  0.3656266226800206  0.5015258427554206   T   T   T
  0.2010110349946954  0.4961956590716197  0.5388132680997778   T   T   T
 
  0.00000000E+00  0.00000000E+00  0.00000000E+00
  0.00000000E+00  0.00000000E+00  0.00000000E+00
  0.00000000E+00  0.00000000E+00  0.00000000E+00
  0.00000000E+00  0.00000000E+00  0.00000000E+00
  0.00000000E+00  0.00000000E+00  0.00000000E+00
  0.00000000E+00  0.00000000E+00  0.00000000E+00
  0.00000000E+00  0.00000000E+00  0.00000000E+00
  0.00000000E+00  0.00000000E+00  0.00000000E+00
  0.00000000E+00  0.00000000E+00  0.00000000E+00
  0.00000000E+00  0.00000000E+00  0.00000000E+00
  0.00000000E+00  0.00000000E+00  0.00000000E+00
  0.00000000E+00  0.00000000E+00  0.00000000E+00
  0.00000000E+00  0.00000000E+00  0.00000000E+00
  0.00000000E+00  0.00000000E+00  0.00000000E+00
  0.00000000E+00  0.00000000E+00  0.00000000E+00
  0.00000000E+00  0.00000000E+00  0.00000000E+00
  0.00000000E+00  0.00000000E+00  0.00000000E+00
  0.00000000E+00  0.00000000E+00  0.00000000E+00
  0.00000000E+00  0.00000000E+00  0.00000000E+00
  0.00000000E+00  0.00000000E+00  0.00000000E+00
  0.00000000E+00  0.00000000E+00  0.00000000E+00
  0.00000000E+00  0.00000000E+00  0.00000000E+00
  0.00000000E+00  0.00000000E+00  0.00000000E+00
  0.00000000E+00  0.00000000E+00  0.00000000E+00
  0.00000000E+00  0.00000000E+00  0.00000000E+00
  0.00000000E+00  0.00000000E+00  0.00000000E+00
  0.00000000E+00  0.00000000E+00  0.00000000E+00
  0.00000000E+00  0.00000000E+00  0.00000000E+00
  0.00000000E+00  0.00000000E+00  0.00000000E+00
  0.00000000E+00  0.00000000E+00  0.00000000E+00
  0.00000000E+00  0.00000000E+00  0.00000000E+00
  0.00000000E+00  0.00000000E+00  0.00000000E+00
  0.00000000E+00  0.00000000E+00  0.00000000E+00
  0.00000000E+00  0.00000000E+00  0.00000000E+00
  0.00000000E+00  0.00000000E+00  0.00000000E+00
  0.00000000E+00  0.00000000E+00  0.00000000E+00
  0.00000000E+00  0.00000000E+00  0.00000000E+00
  0.00000000E+00  0.00000000E+00  0.00000000E+00
  0.00000000E+00  0.00000000E+00  0.00000000E+00
  0.00000000E+00  0.00000000E+00  0.00000000E+00
  0.00000000E+00  0.00000000E+00  0.00000000E+00
  0.00000000E+00  0.00000000E+00  0.00000000E+00
  0.00000000E+00  0.00000000E+00  0.00000000E+00
  0.00000000E+00  0.00000000E+00  0.00000000E+00
  0.00000000E+00  0.00000000E+00  0.00000000E+00
  0.00000000E+00  0.00000000E+00  0.00000000E+00
  0.00000000E+00  0.00000000E+00  0.00000000E+00
  0.00000000E+00  0.00000000E+00  0.00000000E+00
  0.00000000E+00  0.00000000E+00  0.00000000E+00
  0.00000000E+00  0.00000000E+00  0.00000000E+00
  0.00000000E+00  0.00000000E+00  0.00000000E+00
  0.00000000E+00  0.00000000E+00  0.00000000E+00
  0.00000000E+00  0.00000000E+00  0.00000000E+00
  0.00000000E+00  0.00000000E+00  0.00000000E+00
  0.00000000E+00  0.00000000E+00  0.00000000E+00
  0.00000000E+00  0.00000000E+00  0.00000000E+00
  0.00000000E+00  0.00000000E+00  0.00000000E+00
  0.00000000E+00  0.00000000E+00  0.00000000E+00
  0.00000000E+00  0.00000000E+00  0.00000000E+00
  0.00000000E+00  0.00000000E+00  0.00000000E+00
  0.00000000E+00  0.00000000E+00  0.00000000E+00
  0.00000000E+00  0.00000000E+00  0.00000000E+00
  0.00000000E+00  0.00000000E+00  0.00000000E+00
  0.00000000E+00  0.00000000E+00  0.00000000E+00
  0.00000000E+00  0.00000000E+00  0.00000000E+00
  0.00000000E+00  0.00000000E+00  0.00000000E+00
  0.00000000E+00  0.00000000E+00  0.00000000E+00
  0.00000000E+00  0.00000000E+00  0.00000000E+00
  0.00000000E+00  0.00000000E+00  0.00000000E+00
  0.00000000E+00  0.00000000E+00  0.00000000E+00
  0.00000000E+00  0.00000000E+00  0.00000000E+00
  0.00000000E+00  0.00000000E+00  0.00000000E+00
  0.00000000E+00  0.00000000E+00  0.00000000E+00
  0.00000000E+00  0.00000000E+00  0.00000000E+00
  0.00000000E+00  0.00000000E+00  0.00000000E+00
  0.00000000E+00  0.00000000E+00  0.00000000E+00
  0.00000000E+00  0.00000000E+00  0.00000000E+00
  0.00000000E+00  0.00000000E+00  0.00000000E+00
  0.00000000E+00  0.00000000E+00  0.00000000E+00
  0.00000000E+00  0.00000000E+00  0.00000000E+00
  0.00000000E+00  0.00000000E+00  0.00000000E+00
  0.00000000E+00  0.00000000E+00  0.00000000E+00
  0.00000000E+00  0.00000000E+00  0.00000000E+00
  0.00000000E+00  0.00000000E+00  0.00000000E+00
  0.00000000E+00  0.00000000E+00  0.00000000E+00
  0.00000000E+00  0.00000000E+00  0.00000000E+00
  0.00000000E+00  0.00000000E+00  0.00000000E+00
  0.00000000E+00  0.00000000E+00  0.00000000E+00
  0.00000000E+00  0.00000000E+00  0.00000000E+00
  0.00000000E+00  0.00000000E+00  0.00000000E+00
  0.00000000E+00  0.00000000E+00  0.00000000E+00
  0.00000000E+00  0.00000000E+00  0.00000000E+00
  0.00000000E+00  0.00000000E+00  0.00000000E+00
  0.00000000E+00  0.00000000E+00  0.00000000E+00
  0.00000000E+00  0.00000000E+00  0.00000000E+00
  0.00000000E+00  0.00000000E+00  0.00000000E+00
  0.00000000E+00  0.00000000E+00  0.00000000E+00
  0.00000000E+00  0.00000000E+00  0.00000000E+00
  0.00000000E+00  0.00000000E+00  0.00000000E+00
  0.00000000E+00  0.00000000E+00  0.00000000E+00
  0.00000000E+00  0.00000000E+00  0.00000000E+00
  0.00000000E+00  0.00000000E+00  0.00000000E+00
  0.00000000E+00  0.00000000E+00  0.00000000E+00
  0.00000000E+00  0.00000000E+00  0.00000000E+00
  0.00000000E+00  0.00000000E+00  0.00000000E+00
  0.00000000E+00  0.00000000E+00  0.00000000E+00
  0.00000000E+00  0.00000000E+00  0.00000000E+00
  0.00000000E+00  0.00000000E+00  0.00000000E+00
  0.00000000E+00  0.00000000E+00  0.00000000E+00
  0.00000000E+00  0.00000000E+00  0.00000000E+00
  0.00000000E+00  0.00000000E+00  0.00000000E+00
  0.00000000E+00  0.00000000E+00  0.00000000E+00
  0.00000000E+00  0.00000000E+00  0.00000000E+00
  0.00000000E+00  0.00000000E+00  0.00000000E+00
  0.00000000E+00  0.00000000E+00  0.00000000E+00
  0.00000000E+00  0.00000000E+00  0.00000000E+00
  0.00000000E+00  0.00000000E+00  0.00000000E+00
  0.00000000E+00  0.00000000E+00  0.00000000E+00
  0.00000000E+00  0.00000000E+00  0.00000000E+00
  0.00000000E+00  0.00000000E+00  0.00000000E+00
  0.00000000E+00  0.00000000E+00  0.00000000E+00
  0.00000000E+00  0.00000000E+00  0.00000000E+00
  0.00000000E+00  0.00000000E+00  0.00000000E+00
  0.00000000E+00  0.00000000E+00  0.00000000E+00
  0.00000000E+00  0.00000000E+00  0.00000000E+00
  0.00000000E+00  0.00000000E+00  0.00000000E+00
  0.00000000E+00  0.00000000E+00  0.00000000E+00
  0.00000000E+00  0.00000000E+00  0.00000000E+00
  0.00000000E+00  0.00000000E+00  0.00000000E+00
  0.00000000E+00  0.00000000E+00  0.00000000E+00
  0.00000000E+00  0.00000000E+00  0.00000000E+00
  0.00000000E+00  0.00000000E+00  0.00000000E+00
  0.00000000E+00  0.00000000E+00  0.00000000E+00
  0.00000000E+00  0.00000000E+00  0.00000000E+00
  0.00000000E+00  0.00000000E+00  0.00000000E+00
  0.00000000E+00  0.00000000E+00  0.00000000E+00
  0.00000000E+00  0.00000000E+00  0.00000000E+00
  0.00000000E+00  0.00000000E+00  0.00000000E+00
  0.00000000E+00  0.00000000E+00  0.00000000E+00
  0.00000000E+00  0.00000000E+00  0.00000000E+00
  0.00000000E+00  0.00000000E+00  0.00000000E+00
  0.00000000E+00  0.00000000E+00  0.00000000E+00
  0.00000000E+00  0.00000000E+00  0.00000000E+00
  0.00000000E+00  0.00000000E+00  0.00000000E+00
  0.00000000E+00  0.00000000E+00  0.00000000E+00
  0.00000000E+00  0.00000000E+00  0.00000000E+00
  0.00000000E+00  0.00000000E+00  0.00000000E+00
  0.00000000E+00  0.00000000E+00  0.00000000E+00
  0.00000000E+00  0.00000000E+00  0.00000000E+00
  0.00000000E+00  0.00000000E+00  0.00000000E+00
  0.00000000E+00  0.00000000E+00  0.00000000E+00
  0.00000000E+00  0.00000000E+00  0.00000000E+00
  0.00000000E+00  0.00000000E+00  0.00000000E+00
  0.00000000E+00  0.00000000E+00  0.00000000E+00
  0.00000000E+00  0.00000000E+00  0.00000000E+00
  0.00000000E+00  0.00000000E+00  0.00000000E+00
  0.00000000E+00  0.00000000E+00  0.00000000E+00
  0.00000000E+00  0.00000000E+00  0.00000000E+00
  0.00000000E+00  0.00000000E+00  0.00000000E+00
  0.00000000E+00  0.00000000E+00  0.00000000E+00
  0.00000000E+00  0.00000000E+00  0.00000000E+00
  0.00000000E+00  0.00000000E+00  0.00000000E+00
  0.00000000E+00  0.00000000E+00  0.00000000E+00
  0.00000000E+00  0.00000000E+00  0.00000000E+00
  0.00000000E+00  0.00000000E+00  0.00000000E+00
  0.00000000E+00  0.00000000E+00  0.00000000E+00
  0.00000000E+00  0.00000000E+00  0.00000000E+00
  0.00000000E+00  0.00000000E+00  0.00000000E+00
  0.00000000E+00  0.00000000E+00  0.00000000E+00
  0.00000000E+00  0.00000000E+00  0.00000000E+00
  0.00000000E+00  0.00000000E+00  0.00000000E+00
  0.00000000E+00  0.00000000E+00  0.00000000E+00
  0.00000000E+00  0.00000000E+00  0.00000000E+00
  0.00000000E+00  0.00000000E+00  0.00000000E+00
  0.00000000E+00  0.00000000E+00  0.00000000E+00
  0.00000000E+00  0.00000000E+00  0.00000000E+00
  0.00000000E+00  0.00000000E+00  0.00000000E+00
  0.00000000E+00  0.00000000E+00  0.00000000E+00
  0.00000000E+00  0.00000000E+00  0.00000000E+00
  0.00000000E+00  0.00000000E+00  0.00000000E+00
  0.00000000E+00  0.00000000E+00  0.00000000E+00
  0.00000000E+00  0.00000000E+00  0.00000000E+00
  0.00000000E+00  0.00000000E+00  0.00000000E+00
  0.00000000E+00  0.00000000E+00  0.00000000E+00
  0.00000000E+00  0.00000000E+00  0.00000000E+00
  0.00000000E+00  0.00000000E+00  0.00000000E+00
  0.00000000E+00  0.00000000E+00  0.00000000E+00
  0.00000000E+00  0.00000000E+00  0.00000000E+00
  0.00000000E+00  0.00000000E+00  0.00000000E+00
  0.00000000E+00  0.00000000E+00  0.00000000E+00
  0.00000000E+00  0.00000000E+00  0.00000000E+00
  0.00000000E+00  0.00000000E+00  0.00000000E+00
  0.00000000E+00  0.00000000E+00  0.00000000E+00
  0.00000000E+00  0.00000000E+00  0.00000000E+00
  0.00000000E+00  0.00000000E+00  0.00000000E+00
  0.00000000E+00  0.00000000E+00  0.00000000E+00
  0.00000000E+00  0.00000000E+00  0.00000000E+00
  0.00000000E+00  0.00000000E+00  0.00000000E+00
  0.00000000E+00  0.00000000E+00  0.00000000E+00
  0.00000000E+00  0.00000000E+00  0.00000000E+00
  0.00000000E+00  0.00000000E+00  0.00000000E+00
  0.00000000E+00  0.00000000E+00  0.00000000E+00
  0.00000000E+00  0.00000000E+00  0.00000000E+00
  0.00000000E+00  0.00000000E+00  0.00000000E+00
  0.00000000E+00  0.00000000E+00  0.00000000E+00
  0.00000000E+00  0.00000000E+00  0.00000000E+00
  0.00000000E+00  0.00000000E+00  0.00000000E+00
  0.00000000E+00  0.00000000E+00  0.00000000E+00
  0.00000000E+00  0.00000000E+00  0.00000000E+00
  0.00000000E+00  0.00000000E+00  0.00000000E+00
  0.00000000E+00  0.00000000E+00  0.00000000E+00
  0.00000000E+00  0.00000000E+00  0.00000000E+00
  0.00000000E+00  0.00000000E+00  0.00000000E+00
  0.00000000E+00  0.00000000E+00  0.00000000E+00
  0.00000000E+00  0.00000000E+00  0.00000000E+00
  0.00000000E+00  0.00000000E+00  0.00000000E+00
  0.00000000E+00  0.00000000E+00  0.00000000E+00
  0.00000000E+00  0.00000000E+00  0.00000000E+00
  0.00000000E+00  0.00000000E+00  0.00000000E+00
  0.00000000E+00  0.00000000E+00  0.00000000E+00
  0.00000000E+00  0.00000000E+00  0.00000000E+00
  0.00000000E+00  0.00000000E+00  0.00000000E+00
  0.00000000E+00  0.00000000E+00  0.00000000E+00
  0.00000000E+00  0.00000000E+00  0.00000000E+00
  0.00000000E+00  0.00000000E+00  0.00000000E+00
  0.00000000E+00  0.00000000E+00  0.00000000E+00
  0.00000000E+00  0.00000000E+00  0.00000000E+00
  0.00000000E+00  0.00000000E+00  0.00000000E+00
  0.00000000E+00  0.00000000E+00  0.00000000E+00
  0.00000000E+00  0.00000000E+00  0.00000000E+00
  0.00000000E+00  0.00000000E+00  0.00000000E+00
  0.00000000E+00  0.00000000E+00  0.00000000E+00
  0.00000000E+00  0.00000000E+00  0.00000000E+00
  0.00000000E+00  0.00000000E+00  0.00000000E+00
  0.00000000E+00  0.00000000E+00  0.00000000E+00
  0.00000000E+00  0.00000000E+00  0.00000000E+00
  0.00000000E+00  0.00000000E+00  0.00000000E+00
  0.00000000E+00  0.00000000E+00  0.00000000E+00
  0.00000000E+00  0.00000000E+00  0.00000000E+00
