H  C                                    
   1.00000000000000     
    25.0000000000000000    0.0000000000000000    0.0000000000000000
     0.0000000000000000   25.0000000000000000    0.0000000000000000
     0.0000000000000000    0.0000000000000000   25.0000000000000000
   H    C 
    18    16
Selective dynamics
Direct
  0.4264457085254329  0.7566411804402394  0.5361361000772809   T   T   T
  0.5154116090875988  0.7920529300451288  0.5639770603474350   T   T   T
  0.4071483373875234  0.6590776957055250  0.5458809028647912   T   T   T
  0.4762275616057702  0.5982390533980695  0.5831224910658617   T   T   T
  0.5839130336675942  0.7313992159087583  0.6012704561624180   T   T   T
  0.5689153656169376  0.5820395193922717  0.6027031278663856   T   T   T
  0.5646745949672156  0.6174987765205930  0.6631964111199672   T   T   T
  0.6401786806453745  0.6774371047132522  0.6338408827688350   T   T   T
  0.6456612580283025  0.6403649394723876  0.5737438041381047   T   T   T
  0.7436521917448496  0.6286713328408088  0.6065206341471598   T   T   T
  0.7561122372811712  0.5928738180253319  0.6667722103994937   T   T   T
  0.7290119740637430  0.6589634558395485  0.6690578327726875   T   T   T
  0.6567620327382868  0.5943657903513180  0.6866918168415966   T   T   T
  0.6148324149255442  0.5120764442522957  0.6798087872751393   T   T   T
  0.6083137283945412  0.4215921047014881  0.6390689164273755   T   T   T
  0.6594212369079256  0.4005403356482144  0.5558694579223901   T   T   T
  0.7166995886111063  0.4707690854760185  0.5142315363042924   T   T   T
  0.7228696872918227  0.5608127250230412  0.5550398582966556   T   T   T
  0.4566408932441692  0.7297453228118780  0.5525609316734033   T   T   T
  0.4459005810349335  0.6751109016786200  0.5580389355605514   T   T   T
  0.4847639372799363  0.6409398763917437  0.5790730950189724   T   T   T
  0.5349676234732977  0.6602590835710743  0.5953590014149180   T   T   T
  0.5452361594553634  0.7150881880709629  0.5893477298311385   T   T   T
  0.5065068838062351  0.7495050704389382  0.5681887892320651   T   T   T
  0.5747522580579394  0.6220086052735638  0.6203336132168367   T   T   T
  0.6337801087136363  0.6375533729508718  0.6161643330864104   T   T   T
  0.6714517560327500  0.5981524681538759  0.6451765937678162   T   T   T
  0.7284384750325029  0.6208239668783511  0.6470888647483147   T   T   T
  0.6691739631934333  0.5428287467865068  0.6204141559198983   T   T   T
  0.6371745393197675  0.5028828581884685  0.6433716393118037   T   T   T
  0.6334720764641467  0.4520284607408849  0.6204544762122409   T   T   T
  0.6620230903273120  0.4402138057846217  0.5738657276458639   T   T   T
  0.6940957862068351  0.4796486091977463  0.5505135337390389   T   T   T
  0.6975351332429983  0.5304473881835899  0.5735767516308647   T   T   T
 
  0.00000000E+00  0.00000000E+00  0.00000000E+00
  0.00000000E+00  0.00000000E+00  0.00000000E+00
  0.00000000E+00  0.00000000E+00  0.00000000E+00
  0.00000000E+00  0.00000000E+00  0.00000000E+00
  0.00000000E+00  0.00000000E+00  0.00000000E+00
  0.00000000E+00  0.00000000E+00  0.00000000E+00
  0.00000000E+00  0.00000000E+00  0.00000000E+00
  0.00000000E+00  0.00000000E+00  0.00000000E+00
  0.00000000E+00  0.00000000E+00  0.00000000E+00
  0.00000000E+00  0.00000000E+00  0.00000000E+00
  0.00000000E+00  0.00000000E+00  0.00000000E+00
  0.00000000E+00  0.00000000E+00  0.00000000E+00
  0.00000000E+00  0.00000000E+00  0.00000000E+00
  0.00000000E+00  0.00000000E+00  0.00000000E+00
  0.00000000E+00  0.00000000E+00  0.00000000E+00
  0.00000000E+00  0.00000000E+00  0.00000000E+00
  0.00000000E+00  0.00000000E+00  0.00000000E+00
  0.00000000E+00  0.00000000E+00  0.00000000E+00
  0.00000000E+00  0.00000000E+00  0.00000000E+00
  0.00000000E+00  0.00000000E+00  0.00000000E+00
  0.00000000E+00  0.00000000E+00  0.00000000E+00
  0.00000000E+00  0.00000000E+00  0.00000000E+00
  0.00000000E+00  0.00000000E+00  0.00000000E+00
  0.00000000E+00  0.00000000E+00  0.00000000E+00
  0.00000000E+00  0.00000000E+00  0.00000000E+00
  0.00000000E+00  0.00000000E+00  0.00000000E+00
  0.00000000E+00  0.00000000E+00  0.00000000E+00
  0.00000000E+00  0.00000000E+00  0.00000000E+00
  0.00000000E+00  0.00000000E+00  0.00000000E+00
  0.00000000E+00  0.00000000E+00  0.00000000E+00
  0.00000000E+00  0.00000000E+00  0.00000000E+00
  0.00000000E+00  0.00000000E+00  0.00000000E+00
  0.00000000E+00  0.00000000E+00  0.00000000E+00
  0.00000000E+00  0.00000000E+00  0.00000000E+00
