Au_bulk\(1\1\1)                         
   1.00000000000000     
    11.6003999711999999    0.0000000000000000    0.0000000000000000
    -5.8001999855999999   10.0462410688000006    0.0000000000000000
     0.0000000000000000    0.0000000000000000   22.1037006377999994
   Au
    64
Selective dynamics
Direct
  0.0000000000000000  0.0000000000000000  0.0000000000000000   F   F   F
  0.1666675060029519  0.0833325012476536  0.1071299989989214   F   F   F
  0.0000000000000000  0.2500000000000000  0.0000000000000000   F   F   F
  0.1666675060029519  0.3333325012476536  0.1071299989989214   F   F   F
  0.0000000000000000  0.5000000000000000  0.0000000000000000   F   F   F
  0.1666675060029519  0.5833325012476536  0.1071299989989214   F   F   F
  0.0000000000000000  0.7500000000000000  0.0000000000000000   F   F   F
  0.1666675060029519  0.8333325012476536  0.1071299989989214   F   F   F
  0.2500000000000000  0.0000000000000000  0.0000000000000000   F   F   F
  0.4166675060029519  0.0833325012476536  0.1071299989989214   F   F   F
  0.2500000000000000  0.2500000000000000  0.0000000000000000   F   F   F
  0.4166675060029519  0.3333325012476536  0.1071299989989214   F   F   F
  0.2500000000000000  0.5000000000000000  0.0000000000000000   F   F   F
  0.4166675060029519  0.5833325012476536  0.1071299989989214   F   F   F
  0.2500000000000000  0.7500000000000000  0.0000000000000000   F   F   F
  0.4166675060029519  0.8333325012476536  0.1071299989989214   F   F   F
  0.5000000000000000  0.0000000000000000  0.0000000000000000   F   F   F
  0.6666675060029519  0.0833325012476536  0.1071299989989214   F   F   F
  0.5000000000000000  0.2500000000000000  0.0000000000000000   F   F   F
  0.6666675060029519  0.3333325012476536  0.1071299989989214   F   F   F
  0.5000000000000000  0.5000000000000000  0.0000000000000000   F   F   F
  0.6666675060029519  0.5833325012476536  0.1071299989989214   F   F   F
  0.5000000000000000  0.7500000000000000  0.0000000000000000   F   F   F
  0.6666675060029519  0.8333325012476536  0.1071299989989214   F   F   F
  0.7500000000000000  0.0000000000000000  0.0000000000000000   F   F   F
  0.9166675060029519  0.0833325012476536  0.1071299989989214   F   F   F
  0.7500000000000000  0.2500000000000000  0.0000000000000000   F   F   F
  0.9166675060029519  0.3333325012476536  0.1071299989989214   F   F   F
  0.7500000000000000  0.5000000000000000  0.0000000000000000   F   F   F
  0.9166675060029519  0.5833325012476536  0.1071299989989214   F   F   F
  0.7500000000000000  0.7500000000000000  0.0000000000000000   F   F   F
  0.9166675060029519  0.8333325012476536  0.1071299989989214   F   F   F
  0.0833325012494797  0.1666675059988378  0.2131121005869883   T   T   T
 -0.0000000000000000  0.0000000000000000  0.3221127377832101   T   T   T
  0.0833325012494797  0.4166675059988378  0.2131121005869883   T   T   T
 -0.0000000000000000  0.2500000000000000  0.3221127377832101   T   T   T
  0.0833325012494797  0.6666675059988378  0.2131121005869883   T   T   T
 -0.0000000000000000  0.5000000000000000  0.3221127377832101   T   T   T
  0.0833325012494797  0.9166675059988378  0.2131121005869883   T   T   T
 -0.0000000000000000  0.7500000000000000  0.3221127377832101   T   T   T
  0.3333325012494797  0.1666675059988378  0.2131121005869883   T   T   T
  0.2500000000000000  0.0000000000000000  0.3221127377832101   T   T   T
  0.3333325012494797  0.4166675059988378  0.2131121005869883   T   T   T
  0.2500000000000000  0.2500000000000000  0.3221127377832101   T   T   T
  0.3333325012494797  0.6666675059988378  0.2131121005869883   T   T   T
  0.2500000000000000  0.5000000000000000  0.3221127377832101   T   T   T
  0.3333325012494797  0.9166675059988378  0.2131121005869883   T   T   T
  0.2500000000000000  0.7500000000000000  0.3221127377832101   T   T   T
  0.5833325012494797  0.1666675059988378  0.2131121005869883   T   T   T
  0.5000000000000000  0.0000000000000000  0.3221127377832101   T   T   T
  0.5833325012494797  0.4166675059988378  0.2131121005869883   T   T   T
  0.5000000000000000  0.2500000000000000  0.3221127377832101   T   T   T
  0.5833325012494797  0.6666675059988378  0.2131121005869883   T   T   T
  0.5000000000000000  0.5000000000000000  0.3221127377832101   T   T   T
  0.5833325012494797  0.9166675059988378  0.2131121005869883   T   T   T
  0.5000000000000000  0.7500000000000000  0.3221127377832101   T   T   T
  0.8333325012494797  0.1666675059988378  0.2131121005869883   T   T   T
  0.7500000000000000  0.0000000000000000  0.3221127377832101   T   T   T
  0.8333325012494797  0.4166675059988378  0.2131121005869883   T   T   T
  0.7500000000000000  0.2500000000000000  0.3221127377832101   T   T   T
  0.8333325012494797  0.6666675059988378  0.2131121005869883   T   T   T
  0.7500000000000000  0.5000000000000000  0.3221127377832101   T   T   T
  0.8333325012494797  0.9166675059988378  0.2131121005869883   T   T   T
  0.7500000000000000  0.7500000000000000  0.3221127377832101   T   T   T
 
  0.00000000E+00  0.00000000E+00  0.00000000E+00
  0.00000000E+00  0.00000000E+00  0.00000000E+00
  0.00000000E+00  0.00000000E+00  0.00000000E+00
  0.00000000E+00  0.00000000E+00  0.00000000E+00
  0.00000000E+00  0.00000000E+00  0.00000000E+00
  0.00000000E+00  0.00000000E+00  0.00000000E+00
  0.00000000E+00  0.00000000E+00  0.00000000E+00
  0.00000000E+00  0.00000000E+00  0.00000000E+00
  0.00000000E+00  0.00000000E+00  0.00000000E+00
  0.00000000E+00  0.00000000E+00  0.00000000E+00
  0.00000000E+00  0.00000000E+00  0.00000000E+00
  0.00000000E+00  0.00000000E+00  0.00000000E+00
  0.00000000E+00  0.00000000E+00  0.00000000E+00
  0.00000000E+00  0.00000000E+00  0.00000000E+00
  0.00000000E+00  0.00000000E+00  0.00000000E+00
  0.00000000E+00  0.00000000E+00  0.00000000E+00
  0.00000000E+00  0.00000000E+00  0.00000000E+00
  0.00000000E+00  0.00000000E+00  0.00000000E+00
  0.00000000E+00  0.00000000E+00  0.00000000E+00
  0.00000000E+00  0.00000000E+00  0.00000000E+00
  0.00000000E+00  0.00000000E+00  0.00000000E+00
  0.00000000E+00  0.00000000E+00  0.00000000E+00
  0.00000000E+00  0.00000000E+00  0.00000000E+00
  0.00000000E+00  0.00000000E+00  0.00000000E+00
  0.00000000E+00  0.00000000E+00  0.00000000E+00
  0.00000000E+00  0.00000000E+00  0.00000000E+00
  0.00000000E+00  0.00000000E+00  0.00000000E+00
  0.00000000E+00  0.00000000E+00  0.00000000E+00
  0.00000000E+00  0.00000000E+00  0.00000000E+00
  0.00000000E+00  0.00000000E+00  0.00000000E+00
  0.00000000E+00  0.00000000E+00  0.00000000E+00
  0.00000000E+00  0.00000000E+00  0.00000000E+00
  0.00000000E+00  0.00000000E+00  0.00000000E+00
  0.00000000E+00  0.00000000E+00  0.00000000E+00
  0.00000000E+00  0.00000000E+00  0.00000000E+00
  0.00000000E+00  0.00000000E+00  0.00000000E+00
  0.00000000E+00  0.00000000E+00  0.00000000E+00
  0.00000000E+00  0.00000000E+00  0.00000000E+00
  0.00000000E+00  0.00000000E+00  0.00000000E+00
  0.00000000E+00  0.00000000E+00  0.00000000E+00
  0.00000000E+00  0.00000000E+00  0.00000000E+00
  0.00000000E+00  0.00000000E+00  0.00000000E+00
  0.00000000E+00  0.00000000E+00  0.00000000E+00
  0.00000000E+00  0.00000000E+00  0.00000000E+00
  0.00000000E+00  0.00000000E+00  0.00000000E+00
  0.00000000E+00  0.00000000E+00  0.00000000E+00
  0.00000000E+00  0.00000000E+00  0.00000000E+00
  0.00000000E+00  0.00000000E+00  0.00000000E+00
  0.00000000E+00  0.00000000E+00  0.00000000E+00
  0.00000000E+00  0.00000000E+00  0.00000000E+00
  0.00000000E+00  0.00000000E+00  0.00000000E+00
  0.00000000E+00  0.00000000E+00  0.00000000E+00
  0.00000000E+00  0.00000000E+00  0.00000000E+00
  0.00000000E+00  0.00000000E+00  0.00000000E+00
  0.00000000E+00  0.00000000E+00  0.00000000E+00
  0.00000000E+00  0.00000000E+00  0.00000000E+00
  0.00000000E+00  0.00000000E+00  0.00000000E+00
  0.00000000E+00  0.00000000E+00  0.00000000E+00
  0.00000000E+00  0.00000000E+00  0.00000000E+00
  0.00000000E+00  0.00000000E+00  0.00000000E+00
  0.00000000E+00  0.00000000E+00  0.00000000E+00
  0.00000000E+00  0.00000000E+00  0.00000000E+00
  0.00000000E+00  0.00000000E+00  0.00000000E+00
  0.00000000E+00  0.00000000E+00  0.00000000E+00
