Pt  H  C                                
   1.00000000000000     
    19.4393438986000007    0.0000000000000000    0.0000000000000000
     9.7196719493000003   16.8349656490999990    0.0000000000000000
     0.0000000000000000    0.0000000000000000   20.0000000000000000
   Pt   H    C 
   192    32    15
Selective dynamics
Direct
  0.0000000000000000  0.0000000000000000  0.0000000000000000   F   F   F
  0.0833333333318009  0.0833333333338260  0.0000000000000000   F   F   F
  0.1666666666687462  0.1666666666676591  0.0000000000000000   F   F   F
  0.2500000000025722  0.0000000000000000  0.0000000000000000   F   F   F
  0.3333333333343731  0.0833333333338260  0.0000000000000000   F   F   F
  0.4166666666661740  0.1666666666676591  0.0000000000000000   F   F   F
  0.9999999999979750  0.2500000000014850  0.0000000000000000   F   F   F
  0.0833333333349131  0.3333333333353110  0.0000000000000000   F   F   F
  0.1666666666667140  0.4166666666691441  0.0000000000000000   F   F   F
  0.2500000000005400  0.2500000000014850  0.0000000000000000   F   F   F
  0.3333333333323409  0.3333333333353110  0.0000000000000000   F   F   F
  0.4166666666641419  0.4166666666691441  0.0000000000000000   F   F   F
  0.0833333333341884  0.0000000000000000  0.1145474324399984   F   F   F
  0.0000000000003624  0.1666666666676591  0.1145474324399984   F   F   F
  0.1666666666659893  0.0833333333338260  0.1145474324399984   F   F   F
  0.3333333333316162  0.0000000000000000  0.1145474324399984   F   F   F
  0.2499999999977902  0.1666666666676591  0.1145474324399984   F   F   F
  0.4166666666685614  0.0833333333338260  0.1145474324399984   F   F   F
  0.0833333333321633  0.2500000000014850  0.1145474324399984   F   F   F
  0.9999999999983373  0.4166666666691441  0.1145474324399984   F   F   F
  0.1666666666639642  0.3333333333353110  0.1145474324399984   F   F   F
  0.3333333333347355  0.2500000000014850  0.1145474324399984   F   F   F
  0.2500000000009024  0.4166666666691441  0.1145474324399984   F   F   F
  0.4166666666665364  0.3333333333353110  0.1145474324399984   F   F   F
  0.0001490402947485  0.0832257008625309  0.2271340102455986   T   T   T
  0.1667317419236027  0.0000818749469490  0.2271045033923618   T   T   T
  0.0834526305005290  0.1665392918167402  0.2271319828093993   T   T   T
  0.2500974885450400  0.0834105401597720  0.2271010218899052   T   T   T
  0.4167855552470241  0.0000902607833742  0.2271093584234065   T   T   T
  0.3334268435251530  0.1666481979849773  0.2270647665325849   T   T   T
  0.0001834264405304  0.3330847676220038  0.2271107528542549   T   T   T
  0.1666864681823298  0.2499195948632416  0.2270411947856934   T   T   T
  0.0833234591069321  0.4165419951353523  0.2270129101549460   T   T   T
  0.2499709922576666  0.3333034352230850  0.2269452224763447   T   T   T
  0.4167951009024574  0.2498659271204984  0.2269425136333712   T   T   T
  0.3333507809426585  0.4166597975511055  0.2268709125346989   T   T   T
  0.0000631564037797 -0.0000437555675027  0.3416797776919140   T   T   T
  0.0833430478357435  0.0833263058863499  0.3417223827037836   T   T   T
  0.1667346969441427  0.1665752072201226  0.3416497268343758   T   T   T
  0.2500025449209275  0.0000891905010338  0.3416030366822231   T   T   T
  0.3334069571133919  0.0832597728380063  0.3416629419763151   T   T   T
  0.4168532676505589  0.1663506421844903  0.3415277496961841   T   T   T
  0.0000787743851172  0.2499327088994867  0.3416571299565356   T   T   T
  0.0834492763954265  0.3332623348009526  0.3416388397207466   T   T   T
  0.1665590381115013  0.4167049930054404  0.3414564587987528   T   T   T
  0.2500188706065655  0.2498446002364851  0.3414866181790415   T   T   T
  0.3335916595987238  0.3329334356977192  0.3410150898975003   T   T   T
  0.4167334656708391  0.4165511655506796  0.3414853837107106   T   T   T
  0.0000000000040572  0.4999999999970299  0.0000000000000000   F   F   F
  0.0833333333358581  0.5833333333308559  0.0000000000000000   F   F   F
  0.1666666666676591  0.6666666666646890  0.0000000000000000   F   F   F
  0.2500000000014850  0.4999999999970299  0.0000000000000000   F   F   F
  0.3333333333332860  0.5833333333308559  0.0000000000000000   F   F   F
  0.4166666666702312  0.6666666666646890  0.0000000000000000   F   F   F
  0.0000000000020250  0.7499999999985150  0.0000000000000000   F   F   F
  0.0833333333338260  0.8333333333323409  0.0000000000000000   F   F   F
  0.1666666666656269  0.9166666666661740  0.0000000000000000   F   F   F
  0.2499999999994529  0.7499999999985150  0.0000000000000000   F   F   F
  0.3333333333363981  0.8333333333323409  0.0000000000000000   F   F   F
  0.4166666666681991  0.9166666666661740  0.0000000000000000   F   F   F
  0.0833333333331012  0.4999999999970299  0.1145474324399984   F   F   F
  0.9999999999992752  0.6666666666646890  0.1145474324399984   F   F   F
  0.1666666666700465  0.5833333333308559  0.1145474324399984   F   F   F
  0.3333333333356734  0.4999999999970299  0.1145474324399984   F   F   F
  0.2500000000018474  0.6666666666646890  0.1145474324399984   F   F   F
  0.4166666666674743  0.5833333333308559  0.1145474324399984   F   F   F
  0.0833333333362205  0.7499999999985150  0.1145474324399984   F   F   F
  0.0000000000023874  0.9166666666661740  0.1145474324399984   F   F   F
  0.1666666666680214  0.8333333333323409  0.1145474324399984   F   F   F
  0.3333333333336483  0.7499999999985150  0.1145474324399984   F   F   F
  0.2499999999998153  0.9166666666661740  0.1145474324399984   F   F   F
  0.4166666666654493  0.8333333333323409  0.1145474324399984   F   F   F
 -0.0001277228828759  0.5832853225416496  0.2270992692890520   T   T   T
  0.1664954682638478  0.5000034349398721  0.2269976482122248   T   T   T
  0.0830466421261424  0.6666892661271611  0.2270143789894200   T   T   T
  0.2497572175996803  0.5833734255121892  0.2266639435728730   T   T   T
  0.4167512244997752  0.4997833581040390  0.2266227907462655   T   T   T
  0.3331036979738022  0.6668806999812437  0.2266200796060565   T   T   T
 -0.0000940029577475  0.8334336116086013  0.2270957371029505   T   T   T
  0.1664245297503732  0.7501644168484277  0.2268691785710978   T   T   T
  0.0833121221662944  0.9167483447619525  0.2270571070195616   T   T   T
  0.2499585243302311  0.8335113871994815  0.2268366048024400   T   T   T
  0.4168305576612522  0.7501841935085291  0.2267431072050675   T   T   T
  0.3334599219649523  0.9169165911672158  0.2269458601303567   T   T   T
  0.0001348553214612  0.4999525340537617  0.3416488473813675   T   T   T
  0.0833902314577143  0.5832698564961337  0.3416797463290649   T   T   T
  0.1664089905457263  0.6669064553284684  0.3410780201662368   T   T   T
  0.2498995235663395  0.4999840761024889  0.3412990165773690   T   T   T
  0.3335481173632310  0.5832021347268646  0.3406949439762765   T   T   T
  0.4168364111715077  0.6663607568618806  0.3404796834283255   T   T   T
 -0.0000842363047570  0.7500854232703260  0.3416150645833460   T   T   T
  0.0833277851936696  0.8334018391684914  0.3415547304666281   T   T   T
  0.1666448666497342  0.9166786913927164  0.3415115256227525   T   T   T
  0.2500762873424923  0.7499787337698801  0.3413429419443859   T   T   T
  0.3331533091204361  0.8336504348708326  0.3409372267184386   T   T   T
  0.4167455315526452  0.9166958206368385  0.3416556727082694   T   T   T
  0.5000000000000000  0.0000000000000000  0.0000000000000000   F   F   F
  0.5833333333318009  0.0833333333338260  0.0000000000000000   F   F   F
  0.6666666666687462  0.1666666666676591  0.0000000000000000   F   F   F
  0.7500000000025722  0.0000000000000000  0.0000000000000000   F   F   F
  0.8333333333343731  0.0833333333338260  0.0000000000000000   F   F   F
  0.9166666666661740  0.1666666666676591  0.0000000000000000   F   F   F
  0.4999999999979678  0.2500000000014850  0.0000000000000000   F   F   F
  0.5833333333349131  0.3333333333353110  0.0000000000000000   F   F   F
  0.6666666666667140  0.4166666666691441  0.0000000000000000   F   F   F
  0.7500000000005400  0.2500000000014850  0.0000000000000000   F   F   F
  0.8333333333323409  0.3333333333353110  0.0000000000000000   F   F   F
  0.9166666666641419  0.4166666666691441  0.0000000000000000   F   F   F
  0.5833333333341884  0.0000000000000000  0.1145474324399984   F   F   F
  0.5000000000003624  0.1666666666676591  0.1145474324399984   F   F   F
  0.6666666666659893  0.0833333333338260  0.1145474324399984   F   F   F
  0.8333333333316162  0.0000000000000000  0.1145474324399984   F   F   F
  0.7499999999977902  0.1666666666676591  0.1145474324399984   F   F   F
  0.9166666666685614  0.0833333333338260  0.1145474324399984   F   F   F
  0.5833333333321633  0.2500000000014850  0.1145474324399984   F   F   F
  0.4999999999983302  0.4166666666691441  0.1145474324399984   F   F   F
  0.6666666666639642  0.3333333333353110  0.1145474324399984   F   F   F
  0.8333333333347355  0.2500000000014850  0.1145474324399984   F   F   F
  0.7500000000009024  0.4166666666691441  0.1145474324399984   F   F   F
  0.9166666666665364  0.3333333333353110  0.1145474324399984   F   F   F
  0.5001710530400715  0.0832350999531667  0.2270564981486606   T   T   T
  0.6668214165422256 -0.0000339023361181  0.2271309028490466   T   T   T
  0.5835174314618723  0.1664631437015914  0.2270592316000788   T   T   T
  0.7501817909874339  0.0832004879881338  0.2271207251684770   T   T   T
  0.9167817976050695 -0.0000440865774712  0.2271649806043553   T   T   T
  0.8335554897792621  0.1664559266535332  0.2271487529761294   T   T   T
  0.5001642830966128  0.3330727369491109  0.2270755429537765   T   T   T
  0.6669620589473814  0.2496903817650840  0.2269939949508726   T   T   T
  0.5836983790442353  0.4162601164795269  0.2267177911527930   T   T   T
  0.7503655952410863  0.3329856120463230  0.2269701870473556   T   T   T
  0.9169079884797154  0.2497401580673171  0.2270992697343633   T   T   T
  0.8337107196714975  0.4163109834463163  0.2268701768175183   T   T   T
  0.5000605077117610 -0.0000501793642787  0.3417246293375765   T   T   T
  0.5834157415340848  0.0832510491562780  0.3416391541708687   T   T   T
  0.6667485281749680  0.1665742285703850  0.3416189013438654   T   T   T
  0.7500429539683842 -0.0000242497821462  0.3416986364234025   T   T   T
  0.8333797802400520  0.0832753698297727  0.3417029535047046   T   T   T
  0.9167437772875847  0.1665840419423244  0.3416651059241680   T   T   T
  0.5002366746383434  0.2498062757568635  0.3415579741817361   T   T   T
  0.5835905201364010  0.3329514610945948  0.3414242339605145   T   T   T
  0.6671471445725164  0.4163326697999985  0.3413005685720818   T   T   T
  0.7501127929083470  0.2498821716360682  0.3416124665628057   T   T   T
  0.8335270279497480  0.3331803581699374  0.3415706235364985   T   T   T
  0.9168959939868205  0.4165196961908407  0.3415555926854882   T   T   T
  0.5000000000040572  0.4999999999970299  0.0000000000000000   F   F   F
  0.5833333333358581  0.5833333333308559  0.0000000000000000   F   F   F
  0.6666666666676591  0.6666666666646890  0.0000000000000000   F   F   F
  0.7500000000014850  0.4999999999970299  0.0000000000000000   F   F   F
  0.8333333333332860  0.5833333333308559  0.0000000000000000   F   F   F
  0.9166666666702312  0.6666666666646890  0.0000000000000000   F   F   F
  0.5000000000020250  0.7499999999985150  0.0000000000000000   F   F   F
  0.5833333333338260  0.8333333333323409  0.0000000000000000   F   F   F
  0.6666666666656269  0.9166666666661740  0.0000000000000000   F   F   F
  0.7499999999994529  0.7499999999985150  0.0000000000000000   F   F   F
  0.8333333333363981  0.8333333333323409  0.0000000000000000   F   F   F
  0.9166666666681991  0.9166666666661740  0.0000000000000000   F   F   F
  0.5833333333331012  0.4999999999970299  0.1145474324399984   F   F   F
  0.4999999999992752  0.6666666666646890  0.1145474324399984   F   F   F
  0.6666666666700465  0.5833333333308559  0.1145474324399984   F   F   F
  0.8333333333356734  0.4999999999970299  0.1145474324399984   F   F   F
  0.7500000000018474  0.6666666666646890  0.1145474324399984   F   F   F
  0.9166666666674743  0.5833333333308559  0.1145474324399984   F   F   F
  0.5833333333362205  0.7499999999985150  0.1145474324399984   F   F   F
  0.5000000000023874  0.9166666666661740  0.1145474324399984   F   F   F
  0.6666666666680214  0.8333333333323409  0.1145474324399984   F   F   F
  0.8333333333336483  0.7499999999985150  0.1145474324399984   F   F   F
  0.7499999999998153  0.9166666666661740  0.1145474324399984   F   F   F
  0.9166666666654493  0.8333333333323409  0.1145474324399984   F   F   F
  0.5001632641153664  0.5831575912578205  0.2264978135065084   T   T   T
  0.6669559661823664  0.4997755504068099  0.2268058219686040   T   T   T
  0.5834164101751409  0.6667083978706626  0.2267532081176872   T   T   T
  0.7503122017378879  0.5831643226221476  0.2265369704635478   T   T   T
  0.9168929427043611  0.4997439431557962  0.2269570234855320   T   T   T
  0.8333834764224485  0.6667874598847717  0.2270778550930066   T   T   T
  0.5001473538671154  0.8334663035998437  0.2271524502721080   T   T   T
  0.6667939996784475  0.7501956875341688  0.2269497642185890   T   T   T
  0.5834499318054908  0.9167775604473488  0.2270714764044049   T   T   T
  0.7500393539388630  0.8334856925079485  0.2270827400215527   T   T   T
  0.9165747841394425  0.7500915509056977  0.2270589296088253   T   T   T
  0.8334218975818418  0.9167088113319004  0.2271236417881983   T   T   T
  0.5005838811826365  0.4994363100302951  0.3405590884343784   T   T   T
  0.5836650319153495  0.5830137014806595  0.3409601667590293   T   T   T
  0.6676801542289220  0.6665102142551360  0.3405213493162109   T   T   T
  0.7504634558671222  0.4995538372584493  0.3409332643271093   T   T   T
  0.8339855964821398  0.5830898149740530  0.3412317161160898   T   T   T
  0.9168611846881244  0.6666561555951919  0.3416646587319919   T   T   T
  0.5003713196207535  0.7499894669027944  0.3414836550916425   T   T   T
  0.5834993543544895  0.8335599938995123  0.3417247197843794   T   T   T
  0.6667182520025946  0.9166701855515160  0.3417230095616585   T   T   T
  0.7503288882880499  0.7501507177158988  0.3416652118686802   T   T   T
  0.8334229430570753  0.8333526683812966  0.3416665911073932   T   T   T
  0.9166705047552032  0.9166846379807675  0.3417003446018276   T   T   T
  0.2165007300666716  0.4801894254983975  0.4833715392179396   T   T   T
  0.2048239689914206  0.4343260989187060  0.5551629473735432   T   T   T
  0.3247238837906120  0.4458669444942384  0.6048347300441912   T   T   T
  0.2292820097043880  0.5315708623914096  0.6039820252991164   T   T   T
  0.3445748078485075  0.4965218941754177  0.4885402429754317   T   T   T
  0.4032725719652067  0.5011577135876883  0.6049711182024647   T   T   T
  0.3273550161787002  0.6020597872731533  0.6079115646349736   T   T   T
  0.3812347437439705  0.6127703238262461  0.4897314390500440   T   T   T
  0.4983411827629364  0.5812114773640805  0.6027618883177397   T   T   T
  0.4003894254560157  0.6629828516987122  0.6074508914522500   T   T   T
  0.5037163000198061  0.6356714462194748  0.4843219284275319   T   T   T
  0.5631951069664882  0.6522770214364816  0.5996582887970968   T   T   T
  0.4868198662901209  0.7526397889775914  0.5924649138234133   T   T   T
  0.5426482886066825  0.7341898035145727  0.4660977667262193   T   T   T
  0.5411657561008885  0.8329430962476935  0.5462197384396013   T   T   T
  0.6313008515605844  0.7854353366068917  0.4993682542534514   T   T   T
  0.6301662510715730  0.7574120695208050  0.5841412478108792   T   T   T
  0.3616832819909632  0.3708476782457731  0.4766346459274768   T   T   T
  0.2948866870102014  0.3329823270113720  0.4711539843387963   T   T   T
  0.3465227679964866  0.3239463600085111  0.5469589298015536   T   T   T
  0.2050826887125739  0.6505473610667792  0.5447873039778082   T   T   T
  0.2006139628171993  0.5992924844513356  0.4723904291803595   T   T   T
  0.2610428396364200  0.6440527158000412  0.4719296196839889   T   T   T
  0.5263941927464414  0.4614066496916303  0.5428167372958820   T   T   T
  0.5246874534997602  0.5152884314672900  0.4703733750555002   T   T   T
  0.4679962938040708  0.4659667446495944  0.4725416609641362   T   T   T
  0.3606776172188198  0.7837509654614716  0.5443056672433264   T   T   T
  0.3576982801380988  0.7313278475111759  0.4721749174426703   T   T   T
  0.4118138144679232  0.7827383083532209  0.4699280664733921   T   T   T
  0.6903032363599964  0.6124011969982530  0.5437143188434832   T   T   T
  0.6879566329205545  0.6429867109097650  0.4594098489041903   T   T   T
  0.6398810475889665  0.5882859900851811  0.4812597881456169   T   T   T
  0.2484099144417166  0.4438131573687234  0.5275175600532442   T   T   T
  0.2777035486067683  0.4889053547824907  0.5713585591864035   T   T   T
  0.3165588682609608  0.3636231362126813  0.5042818725092054   T   T   T
  0.3098226866116717  0.5343232853645524  0.5312248658541164   T   T   T
  0.3646716313291365  0.5529687500376455  0.5734183430048977   T   T   T
  0.2404915767785891  0.6112346728462325  0.5033826649943844   T   T   T
  0.4172522755601738  0.5752486106027928  0.5319316329439804   T   T   T
  0.4469328563001149  0.6228776291994012  0.5721391443870122   T   T   T
  0.4877451704683856  0.5004557231232847  0.5026373299774102   T   T   T
  0.4703575850262476  0.6725638599003653  0.5279413351191903   T   T   T
  0.5242420849074800  0.6981676334581232  0.5633915968823904   T   T   T
  0.3960217659010261  0.7464710955837409  0.5019712860076359   T   T   T
  0.5763815100569095  0.7126313128072095  0.5138892663167186   T   T   T
  0.5956976013155948  0.7758728127066319  0.5372703257075060   T   T   T
  0.6523784626326943  0.6346579396815225  0.4988468516329106   T   T   T
 
  0.00000000E+00  0.00000000E+00  0.00000000E+00
  0.00000000E+00  0.00000000E+00  0.00000000E+00
  0.00000000E+00  0.00000000E+00  0.00000000E+00
  0.00000000E+00  0.00000000E+00  0.00000000E+00
  0.00000000E+00  0.00000000E+00  0.00000000E+00
  0.00000000E+00  0.00000000E+00  0.00000000E+00
  0.00000000E+00  0.00000000E+00  0.00000000E+00
  0.00000000E+00  0.00000000E+00  0.00000000E+00
  0.00000000E+00  0.00000000E+00  0.00000000E+00
  0.00000000E+00  0.00000000E+00  0.00000000E+00
  0.00000000E+00  0.00000000E+00  0.00000000E+00
  0.00000000E+00  0.00000000E+00  0.00000000E+00
  0.00000000E+00  0.00000000E+00  0.00000000E+00
  0.00000000E+00  0.00000000E+00  0.00000000E+00
  0.00000000E+00  0.00000000E+00  0.00000000E+00
  0.00000000E+00  0.00000000E+00  0.00000000E+00
  0.00000000E+00  0.00000000E+00  0.00000000E+00
  0.00000000E+00  0.00000000E+00  0.00000000E+00
  0.00000000E+00  0.00000000E+00  0.00000000E+00
  0.00000000E+00  0.00000000E+00  0.00000000E+00
  0.00000000E+00  0.00000000E+00  0.00000000E+00
  0.00000000E+00  0.00000000E+00  0.00000000E+00
  0.00000000E+00  0.00000000E+00  0.00000000E+00
  0.00000000E+00  0.00000000E+00  0.00000000E+00
  0.00000000E+00  0.00000000E+00  0.00000000E+00
  0.00000000E+00  0.00000000E+00  0.00000000E+00
  0.00000000E+00  0.00000000E+00  0.00000000E+00
  0.00000000E+00  0.00000000E+00  0.00000000E+00
  0.00000000E+00  0.00000000E+00  0.00000000E+00
  0.00000000E+00  0.00000000E+00  0.00000000E+00
  0.00000000E+00  0.00000000E+00  0.00000000E+00
  0.00000000E+00  0.00000000E+00  0.00000000E+00
  0.00000000E+00  0.00000000E+00  0.00000000E+00
  0.00000000E+00  0.00000000E+00  0.00000000E+00
  0.00000000E+00  0.00000000E+00  0.00000000E+00
  0.00000000E+00  0.00000000E+00  0.00000000E+00
  0.00000000E+00  0.00000000E+00  0.00000000E+00
  0.00000000E+00  0.00000000E+00  0.00000000E+00
  0.00000000E+00  0.00000000E+00  0.00000000E+00
  0.00000000E+00  0.00000000E+00  0.00000000E+00
  0.00000000E+00  0.00000000E+00  0.00000000E+00
  0.00000000E+00  0.00000000E+00  0.00000000E+00
  0.00000000E+00  0.00000000E+00  0.00000000E+00
  0.00000000E+00  0.00000000E+00  0.00000000E+00
  0.00000000E+00  0.00000000E+00  0.00000000E+00
  0.00000000E+00  0.00000000E+00  0.00000000E+00
  0.00000000E+00  0.00000000E+00  0.00000000E+00
  0.00000000E+00  0.00000000E+00  0.00000000E+00
  0.00000000E+00  0.00000000E+00  0.00000000E+00
  0.00000000E+00  0.00000000E+00  0.00000000E+00
  0.00000000E+00  0.00000000E+00  0.00000000E+00
  0.00000000E+00  0.00000000E+00  0.00000000E+00
  0.00000000E+00  0.00000000E+00  0.00000000E+00
  0.00000000E+00  0.00000000E+00  0.00000000E+00
  0.00000000E+00  0.00000000E+00  0.00000000E+00
  0.00000000E+00  0.00000000E+00  0.00000000E+00
  0.00000000E+00  0.00000000E+00  0.00000000E+00
  0.00000000E+00  0.00000000E+00  0.00000000E+00
  0.00000000E+00  0.00000000E+00  0.00000000E+00
  0.00000000E+00  0.00000000E+00  0.00000000E+00
  0.00000000E+00  0.00000000E+00  0.00000000E+00
  0.00000000E+00  0.00000000E+00  0.00000000E+00
  0.00000000E+00  0.00000000E+00  0.00000000E+00
  0.00000000E+00  0.00000000E+00  0.00000000E+00
  0.00000000E+00  0.00000000E+00  0.00000000E+00
  0.00000000E+00  0.00000000E+00  0.00000000E+00
  0.00000000E+00  0.00000000E+00  0.00000000E+00
  0.00000000E+00  0.00000000E+00  0.00000000E+00
  0.00000000E+00  0.00000000E+00  0.00000000E+00
  0.00000000E+00  0.00000000E+00  0.00000000E+00
  0.00000000E+00  0.00000000E+00  0.00000000E+00
  0.00000000E+00  0.00000000E+00  0.00000000E+00
  0.00000000E+00  0.00000000E+00  0.00000000E+00
  0.00000000E+00  0.00000000E+00  0.00000000E+00
  0.00000000E+00  0.00000000E+00  0.00000000E+00
  0.00000000E+00  0.00000000E+00  0.00000000E+00
  0.00000000E+00  0.00000000E+00  0.00000000E+00
  0.00000000E+00  0.00000000E+00  0.00000000E+00
  0.00000000E+00  0.00000000E+00  0.00000000E+00
  0.00000000E+00  0.00000000E+00  0.00000000E+00
  0.00000000E+00  0.00000000E+00  0.00000000E+00
  0.00000000E+00  0.00000000E+00  0.00000000E+00
  0.00000000E+00  0.00000000E+00  0.00000000E+00
  0.00000000E+00  0.00000000E+00  0.00000000E+00
  0.00000000E+00  0.00000000E+00  0.00000000E+00
  0.00000000E+00  0.00000000E+00  0.00000000E+00
  0.00000000E+00  0.00000000E+00  0.00000000E+00
  0.00000000E+00  0.00000000E+00  0.00000000E+00
  0.00000000E+00  0.00000000E+00  0.00000000E+00
  0.00000000E+00  0.00000000E+00  0.00000000E+00
  0.00000000E+00  0.00000000E+00  0.00000000E+00
  0.00000000E+00  0.00000000E+00  0.00000000E+00
  0.00000000E+00  0.00000000E+00  0.00000000E+00
  0.00000000E+00  0.00000000E+00  0.00000000E+00
  0.00000000E+00  0.00000000E+00  0.00000000E+00
  0.00000000E+00  0.00000000E+00  0.00000000E+00
  0.00000000E+00  0.00000000E+00  0.00000000E+00
  0.00000000E+00  0.00000000E+00  0.00000000E+00
  0.00000000E+00  0.00000000E+00  0.00000000E+00
  0.00000000E+00  0.00000000E+00  0.00000000E+00
  0.00000000E+00  0.00000000E+00  0.00000000E+00
  0.00000000E+00  0.00000000E+00  0.00000000E+00
  0.00000000E+00  0.00000000E+00  0.00000000E+00
  0.00000000E+00  0.00000000E+00  0.00000000E+00
  0.00000000E+00  0.00000000E+00  0.00000000E+00
  0.00000000E+00  0.00000000E+00  0.00000000E+00
  0.00000000E+00  0.00000000E+00  0.00000000E+00
  0.00000000E+00  0.00000000E+00  0.00000000E+00
  0.00000000E+00  0.00000000E+00  0.00000000E+00
  0.00000000E+00  0.00000000E+00  0.00000000E+00
  0.00000000E+00  0.00000000E+00  0.00000000E+00
  0.00000000E+00  0.00000000E+00  0.00000000E+00
  0.00000000E+00  0.00000000E+00  0.00000000E+00
  0.00000000E+00  0.00000000E+00  0.00000000E+00
  0.00000000E+00  0.00000000E+00  0.00000000E+00
  0.00000000E+00  0.00000000E+00  0.00000000E+00
  0.00000000E+00  0.00000000E+00  0.00000000E+00
  0.00000000E+00  0.00000000E+00  0.00000000E+00
  0.00000000E+00  0.00000000E+00  0.00000000E+00
  0.00000000E+00  0.00000000E+00  0.00000000E+00
  0.00000000E+00  0.00000000E+00  0.00000000E+00
  0.00000000E+00  0.00000000E+00  0.00000000E+00
  0.00000000E+00  0.00000000E+00  0.00000000E+00
  0.00000000E+00  0.00000000E+00  0.00000000E+00
  0.00000000E+00  0.00000000E+00  0.00000000E+00
  0.00000000E+00  0.00000000E+00  0.00000000E+00
  0.00000000E+00  0.00000000E+00  0.00000000E+00
  0.00000000E+00  0.00000000E+00  0.00000000E+00
  0.00000000E+00  0.00000000E+00  0.00000000E+00
  0.00000000E+00  0.00000000E+00  0.00000000E+00
  0.00000000E+00  0.00000000E+00  0.00000000E+00
  0.00000000E+00  0.00000000E+00  0.00000000E+00
  0.00000000E+00  0.00000000E+00  0.00000000E+00
  0.00000000E+00  0.00000000E+00  0.00000000E+00
  0.00000000E+00  0.00000000E+00  0.00000000E+00
  0.00000000E+00  0.00000000E+00  0.00000000E+00
  0.00000000E+00  0.00000000E+00  0.00000000E+00
  0.00000000E+00  0.00000000E+00  0.00000000E+00
  0.00000000E+00  0.00000000E+00  0.00000000E+00
  0.00000000E+00  0.00000000E+00  0.00000000E+00
  0.00000000E+00  0.00000000E+00  0.00000000E+00
  0.00000000E+00  0.00000000E+00  0.00000000E+00
  0.00000000E+00  0.00000000E+00  0.00000000E+00
  0.00000000E+00  0.00000000E+00  0.00000000E+00
  0.00000000E+00  0.00000000E+00  0.00000000E+00
  0.00000000E+00  0.00000000E+00  0.00000000E+00
  0.00000000E+00  0.00000000E+00  0.00000000E+00
  0.00000000E+00  0.00000000E+00  0.00000000E+00
  0.00000000E+00  0.00000000E+00  0.00000000E+00
  0.00000000E+00  0.00000000E+00  0.00000000E+00
  0.00000000E+00  0.00000000E+00  0.00000000E+00
  0.00000000E+00  0.00000000E+00  0.00000000E+00
  0.00000000E+00  0.00000000E+00  0.00000000E+00
  0.00000000E+00  0.00000000E+00  0.00000000E+00
  0.00000000E+00  0.00000000E+00  0.00000000E+00
  0.00000000E+00  0.00000000E+00  0.00000000E+00
  0.00000000E+00  0.00000000E+00  0.00000000E+00
  0.00000000E+00  0.00000000E+00  0.00000000E+00
  0.00000000E+00  0.00000000E+00  0.00000000E+00
  0.00000000E+00  0.00000000E+00  0.00000000E+00
  0.00000000E+00  0.00000000E+00  0.00000000E+00
  0.00000000E+00  0.00000000E+00  0.00000000E+00
  0.00000000E+00  0.00000000E+00  0.00000000E+00
  0.00000000E+00  0.00000000E+00  0.00000000E+00
  0.00000000E+00  0.00000000E+00  0.00000000E+00
  0.00000000E+00  0.00000000E+00  0.00000000E+00
  0.00000000E+00  0.00000000E+00  0.00000000E+00
  0.00000000E+00  0.00000000E+00  0.00000000E+00
  0.00000000E+00  0.00000000E+00  0.00000000E+00
  0.00000000E+00  0.00000000E+00  0.00000000E+00
  0.00000000E+00  0.00000000E+00  0.00000000E+00
  0.00000000E+00  0.00000000E+00  0.00000000E+00
  0.00000000E+00  0.00000000E+00  0.00000000E+00
  0.00000000E+00  0.00000000E+00  0.00000000E+00
  0.00000000E+00  0.00000000E+00  0.00000000E+00
  0.00000000E+00  0.00000000E+00  0.00000000E+00
  0.00000000E+00  0.00000000E+00  0.00000000E+00
  0.00000000E+00  0.00000000E+00  0.00000000E+00
  0.00000000E+00  0.00000000E+00  0.00000000E+00
  0.00000000E+00  0.00000000E+00  0.00000000E+00
  0.00000000E+00  0.00000000E+00  0.00000000E+00
  0.00000000E+00  0.00000000E+00  0.00000000E+00
  0.00000000E+00  0.00000000E+00  0.00000000E+00
  0.00000000E+00  0.00000000E+00  0.00000000E+00
  0.00000000E+00  0.00000000E+00  0.00000000E+00
  0.00000000E+00  0.00000000E+00  0.00000000E+00
  0.00000000E+00  0.00000000E+00  0.00000000E+00
  0.00000000E+00  0.00000000E+00  0.00000000E+00
  0.00000000E+00  0.00000000E+00  0.00000000E+00
  0.00000000E+00  0.00000000E+00  0.00000000E+00
  0.00000000E+00  0.00000000E+00  0.00000000E+00
  0.00000000E+00  0.00000000E+00  0.00000000E+00
  0.00000000E+00  0.00000000E+00  0.00000000E+00
  0.00000000E+00  0.00000000E+00  0.00000000E+00
  0.00000000E+00  0.00000000E+00  0.00000000E+00
  0.00000000E+00  0.00000000E+00  0.00000000E+00
  0.00000000E+00  0.00000000E+00  0.00000000E+00
  0.00000000E+00  0.00000000E+00  0.00000000E+00
  0.00000000E+00  0.00000000E+00  0.00000000E+00
  0.00000000E+00  0.00000000E+00  0.00000000E+00
  0.00000000E+00  0.00000000E+00  0.00000000E+00
  0.00000000E+00  0.00000000E+00  0.00000000E+00
  0.00000000E+00  0.00000000E+00  0.00000000E+00
  0.00000000E+00  0.00000000E+00  0.00000000E+00
  0.00000000E+00  0.00000000E+00  0.00000000E+00
  0.00000000E+00  0.00000000E+00  0.00000000E+00
  0.00000000E+00  0.00000000E+00  0.00000000E+00
  0.00000000E+00  0.00000000E+00  0.00000000E+00
  0.00000000E+00  0.00000000E+00  0.00000000E+00
  0.00000000E+00  0.00000000E+00  0.00000000E+00
  0.00000000E+00  0.00000000E+00  0.00000000E+00
  0.00000000E+00  0.00000000E+00  0.00000000E+00
  0.00000000E+00  0.00000000E+00  0.00000000E+00
  0.00000000E+00  0.00000000E+00  0.00000000E+00
  0.00000000E+00  0.00000000E+00  0.00000000E+00
  0.00000000E+00  0.00000000E+00  0.00000000E+00
  0.00000000E+00  0.00000000E+00  0.00000000E+00
  0.00000000E+00  0.00000000E+00  0.00000000E+00
  0.00000000E+00  0.00000000E+00  0.00000000E+00
  0.00000000E+00  0.00000000E+00  0.00000000E+00
  0.00000000E+00  0.00000000E+00  0.00000000E+00
  0.00000000E+00  0.00000000E+00  0.00000000E+00
  0.00000000E+00  0.00000000E+00  0.00000000E+00
  0.00000000E+00  0.00000000E+00  0.00000000E+00
  0.00000000E+00  0.00000000E+00  0.00000000E+00
  0.00000000E+00  0.00000000E+00  0.00000000E+00
  0.00000000E+00  0.00000000E+00  0.00000000E+00
  0.00000000E+00  0.00000000E+00  0.00000000E+00
  0.00000000E+00  0.00000000E+00  0.00000000E+00
  0.00000000E+00  0.00000000E+00  0.00000000E+00
  0.00000000E+00  0.00000000E+00  0.00000000E+00
  0.00000000E+00  0.00000000E+00  0.00000000E+00
  0.00000000E+00  0.00000000E+00  0.00000000E+00
  0.00000000E+00  0.00000000E+00  0.00000000E+00
  0.00000000E+00  0.00000000E+00  0.00000000E+00
  0.00000000E+00  0.00000000E+00  0.00000000E+00
  0.00000000E+00  0.00000000E+00  0.00000000E+00
  0.00000000E+00  0.00000000E+00  0.00000000E+00
  0.00000000E+00  0.00000000E+00  0.00000000E+00
