C  H  O                                 
   1.00000000000000     
    20.0000000000000000    0.0000000000000000    0.0000000000000000
     0.0000000000000000   20.0000000000000000    0.0000000000000000
     0.0000000000000000    0.0000000000000000   20.0000000000000000
   C    H    O 
    10    12     3
Selective dynamics
Direct
  0.4612053976627716  0.5018414695259382  0.5116313948615075   T   T   T
  0.5314372671183453  0.5042979729951252  0.5066323819663504   T   T   T
  0.5664814211481618  0.5643087030589643  0.5093089349428851   T   T   T
  0.4268814041911422  0.5626686048625658  0.5194091795686757   T   T   T
  0.5309510058604612  0.6249666474636150  0.5175481887194823   T   T   T
  0.4612597154044338  0.6232653678847405  0.5222968321250511   T   T   T
  0.4232387103482473  0.4394591582339767  0.5085382606402284   T   T   T
  0.4473924748928810  0.3771413076246008  0.5010367171592091   T   T   T
  0.4037757812003891  0.3169051182494136  0.4958793478325009   T   T   T
  0.6651501768589955  0.5928491577510994  0.4496802695095922   T   T   T
  0.5606464491275218  0.4586187317486592  0.5007526959449856   T   T   T
  0.3724391473057254  0.5623262577645982  0.5234404326950010   T   T   T
  0.4339910342755428  0.6702068088276203  0.5289881794488434   T   T   T
  0.3688322168096012  0.4452849469614516  0.5123405530269800   T   T   T
  0.5012321501902512  0.3679261635278069  0.4978681659322042   T   T   T
  0.4102062343108742  0.2933702352511514  0.4461016524858034   T   T   T
  0.3506647120530478  0.3316150490914416  0.5010430180073191   T   T   T
  0.7194057328164302  0.5884770115196388  0.4565441736222706   T   T   T
  0.6499685923490138  0.5655771120481039  0.4041482092951340   T   T   T
  0.6511892448573628  0.6458871114109165  0.4451466001509261   T   T   T
  0.5359306843987818  0.7201727032028267  0.5288439776143006   T   T   T
  0.4027052573413514  0.2269830069359076  0.5362406468220041   T   T   T
  0.6353538470065903  0.5626269467752886  0.5077664049077590   T   T   T
  0.5669463632268790  0.6833262263093293  0.5214956862324802   T   T   T
  0.4227199792401900  0.2699031809752141  0.5473280965035087   T   T   T
 
  0.00000000E+00  0.00000000E+00  0.00000000E+00
  0.00000000E+00  0.00000000E+00  0.00000000E+00
  0.00000000E+00  0.00000000E+00  0.00000000E+00
  0.00000000E+00  0.00000000E+00  0.00000000E+00
  0.00000000E+00  0.00000000E+00  0.00000000E+00
  0.00000000E+00  0.00000000E+00  0.00000000E+00
  0.00000000E+00  0.00000000E+00  0.00000000E+00
  0.00000000E+00  0.00000000E+00  0.00000000E+00
  0.00000000E+00  0.00000000E+00  0.00000000E+00
  0.00000000E+00  0.00000000E+00  0.00000000E+00
  0.00000000E+00  0.00000000E+00  0.00000000E+00
  0.00000000E+00  0.00000000E+00  0.00000000E+00
  0.00000000E+00  0.00000000E+00  0.00000000E+00
  0.00000000E+00  0.00000000E+00  0.00000000E+00
  0.00000000E+00  0.00000000E+00  0.00000000E+00
  0.00000000E+00  0.00000000E+00  0.00000000E+00
  0.00000000E+00  0.00000000E+00  0.00000000E+00
  0.00000000E+00  0.00000000E+00  0.00000000E+00
  0.00000000E+00  0.00000000E+00  0.00000000E+00
  0.00000000E+00  0.00000000E+00  0.00000000E+00
  0.00000000E+00  0.00000000E+00  0.00000000E+00
  0.00000000E+00  0.00000000E+00  0.00000000E+00
  0.00000000E+00  0.00000000E+00  0.00000000E+00
  0.00000000E+00  0.00000000E+00  0.00000000E+00
  0.00000000E+00  0.00000000E+00  0.00000000E+00
