O  C  N  H                              
   1.00000000000000     
    20.0000000000000000    0.0000000000000000    0.0000000000000000
     0.0000000000000000   21.0000000000000000    0.0000000000000000
     0.0000000000000000    0.0000000000000000   22.0000000000000000
   O    C    N    H 
     1    15     4    18
Selective dynamics
Direct
  0.5290795797186504  0.5975428534164046  0.4900508995363813   T   T   T
  0.8000085792923730  0.3235055775772261  0.5230702718540127   T   T   T
  0.7441929663568509  0.3712343304683544  0.5188408962324752   T   T   T
  0.6806891314484859  0.3541211324696207  0.4979955599121390   T   T   T
  0.6284880192451521  0.3978534232916673  0.4929871176185198   T   T   T
  0.6388823218914954  0.4613531061546658  0.5107082166993799   T   T   T
  0.7015862775674366  0.4792222057511069  0.5336738110601413   T   T   T
  0.7544649587995732  0.4352339316577549  0.5367267296995979   T   T   T
  0.5826533249000008  0.5684459419523833  0.4885071043636344   F   F   F
  0.6097760264537514  0.7040398641661272  0.4442959669210673   T   T   T
  0.6314684104025965  0.7653146300278137  0.4294766234101768   T   T   T
  0.6988275821845247  0.7815421111726647  0.4231139274181471   T   T   T
  0.7469881609978385  0.7330486900188348  0.4318283597723004   T   T   T
  0.7260775703639365  0.6712645108463131  0.4465561669532263   T   T   T
  0.6580200384322572  0.6564521226410828  0.4531996796663932   T   T   T
  0.7202396765469734  0.8482714928446350  0.4078717200020204   T   T   T
  0.8172913271454353  0.4552095786497795  0.5561100355004149   T   T   T
  0.5852220531582303  0.5046239974833614  0.5071353464901933   T   T   T
  0.6425730271405400  0.5930341819613107  0.4683664681688465   T   T   T
  0.8150878277025981  0.7474300249113297  0.4289042091538165   T   T   T
  0.6723075435016697  0.3047026143267206  0.4844741125408858   T   T   T
  0.5799185147342633  0.3833886196234116  0.4751058684185520   T   T   T
  0.7090955266150050  0.5271386839531448  0.5516731759602024   T   T   T
  0.8479772736361274  0.4211558637554695  0.5732202791126666   T   T   T
  0.8185730616837190  0.4965700653269449  0.5799466182417986   T   T   T
  0.5385491479820408  0.4857735624155060  0.5098722961144980   T   T   T
  0.8436917620154467  0.3380536840516190  0.4957675881119862   T   T   T
  0.7834201763861810  0.2765975413981258  0.5069129308144464   T   T   T
  0.8176920369989998  0.3174908743198323  0.5703265924282209   T   T   T
  0.6818138113218520  0.5622687344572571  0.4667682195011622   T   T   T
  0.5941103886149836  0.8025461677030229  0.4223498605239460   T   T   T
  0.7637123664674484  0.6341645835785908  0.4536974584268229   T   T   T
  0.7530837152522341  0.8683367460554654  0.4433640583173928   T   T   T
  0.7484200041837835  0.8504821671629021  0.3646710755504750   T   T   T
  0.6765492835450495  0.8795964060806445  0.4032160469767030   T   T   T
  0.8274931455697345  0.7856662619092741  0.4030240930766059   T   T   T
  0.8459180008651381  0.7097051888992487  0.4220647546527345   T   T   T
  0.5570618034445898  0.6927141310469976  0.4490460134881123   T   T   T
 
  0.00000000E+00  0.00000000E+00  0.00000000E+00
  0.00000000E+00  0.00000000E+00  0.00000000E+00
  0.00000000E+00  0.00000000E+00  0.00000000E+00
  0.00000000E+00  0.00000000E+00  0.00000000E+00
  0.00000000E+00  0.00000000E+00  0.00000000E+00
  0.00000000E+00  0.00000000E+00  0.00000000E+00
  0.00000000E+00  0.00000000E+00  0.00000000E+00
  0.00000000E+00  0.00000000E+00  0.00000000E+00
  0.00000000E+00  0.00000000E+00  0.00000000E+00
  0.00000000E+00  0.00000000E+00  0.00000000E+00
  0.00000000E+00  0.00000000E+00  0.00000000E+00
  0.00000000E+00  0.00000000E+00  0.00000000E+00
  0.00000000E+00  0.00000000E+00  0.00000000E+00
  0.00000000E+00  0.00000000E+00  0.00000000E+00
  0.00000000E+00  0.00000000E+00  0.00000000E+00
  0.00000000E+00  0.00000000E+00  0.00000000E+00
  0.00000000E+00  0.00000000E+00  0.00000000E+00
  0.00000000E+00  0.00000000E+00  0.00000000E+00
  0.00000000E+00  0.00000000E+00  0.00000000E+00
  0.00000000E+00  0.00000000E+00  0.00000000E+00
  0.00000000E+00  0.00000000E+00  0.00000000E+00
  0.00000000E+00  0.00000000E+00  0.00000000E+00
  0.00000000E+00  0.00000000E+00  0.00000000E+00
  0.00000000E+00  0.00000000E+00  0.00000000E+00
  0.00000000E+00  0.00000000E+00  0.00000000E+00
  0.00000000E+00  0.00000000E+00  0.00000000E+00
  0.00000000E+00  0.00000000E+00  0.00000000E+00
  0.00000000E+00  0.00000000E+00  0.00000000E+00
  0.00000000E+00  0.00000000E+00  0.00000000E+00
  0.00000000E+00  0.00000000E+00  0.00000000E+00
  0.00000000E+00  0.00000000E+00  0.00000000E+00
  0.00000000E+00  0.00000000E+00  0.00000000E+00
  0.00000000E+00  0.00000000E+00  0.00000000E+00
  0.00000000E+00  0.00000000E+00  0.00000000E+00
  0.00000000E+00  0.00000000E+00  0.00000000E+00
  0.00000000E+00  0.00000000E+00  0.00000000E+00
  0.00000000E+00  0.00000000E+00  0.00000000E+00
  0.00000000E+00  0.00000000E+00  0.00000000E+00
