C  H  O                                 
   1.00000000000000     
    20.0000000000000000    0.0000000000000000    0.0000000000000000
     0.0000000000000000   20.0000000000000000    0.0000000000000000
     0.0000000000000000    0.0000000000000000   20.0000000000000000
   C    H    O 
    10    14     4
Selective dynamics
Direct
  0.1367380704081824  0.1621184650666945  0.3395612155310894   T   T   T
  0.1956013415128246  0.1975630398877380  0.3507885087822029   T   T   T
  0.1997793611470201  0.2657074425670786  0.3340044503917910   T   T   T
  0.1441272711309070  0.2974563386247072  0.3063604233507817   T   T   T
  0.0846745935448860  0.2620439554337008  0.2955081274028362   T   T   T
  0.0804502762669675  0.1945584781446772  0.3118267427862719   T   T   T
  0.1822140045506279  0.0592343675711245  0.3801817693550457   T   T   T
  0.2653260795570450  0.3018892387839343  0.3453137999211686   T   T   T
  0.3182006014827130  0.2809884884523476  0.2932932246783562   T   T   T
  0.3883131037349672  0.3050084669912362  0.3102658390048848   T   T   T
  0.2387869445857352  0.1726865657756292  0.3730433114903872   T   T   T
  0.1473209789955386  0.3503649442925092  0.2938666251289461   T   T   T
  0.0407741282980303  0.2865016878374921  0.2742724154717231   T   T   T
  0.0296755699875765  0.1140327201964364  0.3159060657662433   T   T   T
  0.1982056606184725  0.0803403497930708  0.4285950213954616   T   T   T
  0.1650369221052282  0.0076605407251663  0.3871462461595853   T   T   T
  0.2247730886148876  0.0602875300776877  0.3450485348010718   T   T   T
  0.2846251117892124  0.2867731227660356  0.3952958250960666   T   T   T
  0.3194124262983283  0.2260095825547544  0.2901688455532706   T   T   T
  0.2980069127862299  0.3931066123051892  0.3376134226868278   T   T   T
  0.4025972775403797  0.2866036596866325  0.3604543911919879   T   T   T
  0.4247044252109767  0.2857200830435224  0.2734452059226617   T   T   T
  0.4312088354088033  0.3928933441403279  0.3276129974026445   T   T   T
  0.3028985885172449  0.3001173640921841  0.2439302894288818   T   T   T
  0.0221075968551794  0.1600582597838601  0.3012850979842678   T   T   T
  0.1266699089502252  0.0953146052020724  0.3537526417230108   T   T   T
  0.2541082461963340  0.3723862159192701  0.3442402876373097   T   T   T
  0.3887971530654812  0.3774067997699420  0.3096408611102288   T   T   T
 
  0.00000000E+00  0.00000000E+00  0.00000000E+00
  0.00000000E+00  0.00000000E+00  0.00000000E+00
  0.00000000E+00  0.00000000E+00  0.00000000E+00
  0.00000000E+00  0.00000000E+00  0.00000000E+00
  0.00000000E+00  0.00000000E+00  0.00000000E+00
  0.00000000E+00  0.00000000E+00  0.00000000E+00
  0.00000000E+00  0.00000000E+00  0.00000000E+00
  0.00000000E+00  0.00000000E+00  0.00000000E+00
  0.00000000E+00  0.00000000E+00  0.00000000E+00
  0.00000000E+00  0.00000000E+00  0.00000000E+00
  0.00000000E+00  0.00000000E+00  0.00000000E+00
  0.00000000E+00  0.00000000E+00  0.00000000E+00
  0.00000000E+00  0.00000000E+00  0.00000000E+00
  0.00000000E+00  0.00000000E+00  0.00000000E+00
  0.00000000E+00  0.00000000E+00  0.00000000E+00
  0.00000000E+00  0.00000000E+00  0.00000000E+00
  0.00000000E+00  0.00000000E+00  0.00000000E+00
  0.00000000E+00  0.00000000E+00  0.00000000E+00
  0.00000000E+00  0.00000000E+00  0.00000000E+00
  0.00000000E+00  0.00000000E+00  0.00000000E+00
  0.00000000E+00  0.00000000E+00  0.00000000E+00
  0.00000000E+00  0.00000000E+00  0.00000000E+00
  0.00000000E+00  0.00000000E+00  0.00000000E+00
  0.00000000E+00  0.00000000E+00  0.00000000E+00
  0.00000000E+00  0.00000000E+00  0.00000000E+00
  0.00000000E+00  0.00000000E+00  0.00000000E+00
  0.00000000E+00  0.00000000E+00  0.00000000E+00
  0.00000000E+00  0.00000000E+00  0.00000000E+00
