Au  O  C  N  H                          
   1.00000000000000     
    20.3604714350000009    0.0000000000000000    0.0000000000000000
    10.1802357175000004   17.6326854956999988    0.0000000000000000
     0.0000000000000000    0.0000000000000000   20.0000000000000000
   Au   O    C    N    H 
   192     2     9     2    12
Selective dynamics
Direct
  0.0000000000000000  0.0000000000000000  0.0000000000000000   F   F   F
  0.0833333333338544  0.0833333333347497  0.0000000000000000   F   F   F
  0.1666666666656269  0.1666666666638292  0.0000000000000000   F   F   F
  0.2499999999975415  0.0000000000000000  0.0000000000000000   F   F   F
  0.3333333333313959  0.0833333333347497  0.0000000000000000   F   F   F
  0.4166666666680854  0.1666666666638292  0.0000000000000000   F   F   F
  0.0000000000019398  0.2499999999985789  0.0000000000000000   F   F   F
  0.0833333333308772  0.3333333333333357  0.0000000000000000   F   F   F
  0.1666666666647316  0.4166666666680854  0.0000000000000000   F   F   F
  0.2499999999994813  0.2499999999985789  0.0000000000000000   F   F   F
  0.3333333333333357  0.3333333333333357  0.0000000000000000   F   F   F
  0.4166666666622731  0.4166666666680854  0.0000000000000000   F   F   F
  0.0833333333325115  0.0000000000000000  0.1199752285000031   F   F   F
  0.0000000000005969  0.1666666666638292  0.1199752285000031   F   F   F
  0.1666666666663659  0.0833333333347497  0.1199752285000031   F   F   F
  0.3333333333349700  0.0000000000000000  0.1199752285000031   F   F   F
  0.2500000000030553  0.1666666666638292  0.1199752285000031   F   F   F
  0.4166666666639145  0.0833333333347497  0.1199752285000031   F   F   F
  0.0833333333344513  0.2499999999985789  0.1199752285000031   F   F   F
  0.9999999999997016  0.4166666666680854  0.1199752285000031   F   F   F
  0.1666666666683057  0.3333333333333357  0.1199752285000031   F   F   F
  0.3333333333319928  0.2499999999985789  0.1199752285000031   F   F   F
  0.2499999999972431  0.4166666666680854  0.1199752285000031   F   F   F
  0.4166666666658472  0.3333333333333357  0.1199752285000031   F   F   F
 -0.0000567556205365  0.0833992993889646  0.2380067804778859   T   T   T
  0.1666173702678831  0.0000707278555356  0.2379825064028875   T   T   T
  0.0833071525704408  0.1666432587355745  0.2380280253453051   T   T   T
  0.2499611443797702  0.0833332267212284  0.2380101629938108   T   T   T
  0.4166158896091970  0.0000577392931857  0.2380330881717305   T   T   T
  0.3330292979363552  0.1666849835948112  0.2378324456589226   T   T   T
  0.9999370286882912  0.3333275131461299  0.2380376605214510   T   T   T
  0.1664292762867828  0.2499090203158921  0.2379937770924185   T   T   T
  0.0829437049149209  0.4167792993023610  0.2379996763179270   T   T   T
  0.2489585684732678  0.3334563246341919  0.2372073024682198   T   T   T
  0.4165146576918882  0.2499381467003380  0.2375504739540865   T   T   T
  0.3327804798372507  0.4173800647010049  0.2377090262854291   T   T   T
 -0.0000634264702724  0.0001126200861365  0.3583696079390898   T   T   T
  0.0833329717967291  0.0833869826275279  0.3584386722441104   T   T   T
  0.1666457799773932  0.1666746965661458  0.3585149553959215   T   T   T
  0.2498938088439647  0.0000511014104283  0.3584230696958214   T   T   T
  0.3331430852504963  0.0832134268094413  0.3584511673730315   T   T   T
  0.4164110404926991  0.1659785148643064  0.3573818554842432   T   T   T
  0.0000593422447397  0.2499479982872585  0.3583478515818836   T   T   T
  0.0833095525228872  0.3333070957831638  0.3584822083335781   T   T   T
  0.1659451738437903  0.4169669506976050  0.3586647943813597   T   T   T
  0.2497214415717024  0.2499637891330469  0.3585488764050021   T   T   T
  0.3316367936163946  0.3339102776173620  0.3552485848577201   T   T   T
  0.4143571692939920  0.4193857441058555  0.3576309689587566   T   T   T
  0.9999999999989626  0.4999999999971649  0.0000000000000000   F   F   F
  0.0833333333328170  0.5833333333319146  0.0000000000000000   F   F   F
  0.1666666666666643  0.6666666666666643  0.0000000000000000   F   F   F
  0.2500000000014211  0.4999999999971649  0.0000000000000000   F   F   F
  0.3333333333303585  0.5833333333319146  0.0000000000000000   F   F   F
  0.4166666666642129  0.6666666666666643  0.0000000000000000   F   F   F
  0.9999999999980602  0.7500000000014211  0.0000000000000000   F   F   F
  0.0833333333347497  0.8333333333305006  0.0000000000000000   F   F   F
  0.1666666666636942  0.9166666666652503  0.0000000000000000   F   F   F
  0.2499999999956088  0.7500000000014211  0.0000000000000000   F   F   F
  0.3333333333322983  0.8333333333305006  0.0000000000000000   F   F   F
  0.4166666666661456  0.9166666666652503  0.0000000000000000   F   F   F
  0.0833333333363910  0.4999999999971649  0.1199752285000031   F   F   F
  0.0000000000016342  0.6666666666666643  0.1199752285000031   F   F   F
  0.1666666666653285  0.5833333333319146  0.1199752285000031   F   F   F
  0.3333333333339326  0.4999999999971649  0.1199752285000031   F   F   F
  0.2499999999991829  0.6666666666666643  0.1199752285000031   F   F   F
  0.4166666666677870  0.5833333333319146  0.1199752285000031   F   F   F
  0.0833333333305788  0.7500000000014211  0.1199752285000031   F   F   F
  0.9999999999986642  0.9166666666652503  0.1199752285000031   F   F   F
  0.1666666666672683  0.8333333333305006  0.1199752285000031   F   F   F
  0.3333333333330373  0.7500000000014211  0.1199752285000031   F   F   F
  0.2500000000011156  0.9166666666652503  0.1199752285000031   F   F   F
  0.4166666666648098  0.8333333333305006  0.1199752285000031   F   F   F
  0.9998551417101496  0.5834553343260797  0.2380092774068727   T   T   T
  0.1660413619824689  0.5000878433184857  0.2375644205903921   T   T   T
  0.0831590565736610  0.6667614331934522  0.2380343977087214   T   T   T
  0.2494140019280390  0.5839859316607764  0.2377058794285387   T   T   T
  0.4161756620460360  0.5005772929286050  0.2376880318788138   T   T   T
  0.3330546637432618  0.6672228139321416  0.2377138944138487   T   T   T
  0.9999343828557832  0.8333836697554234  0.2379657663590288   T   T   T
  0.1664460663323130  0.7501969082411544  0.2380318875087701   T   T   T
  0.0832859876643393  0.9167485596030382  0.2379767717508303   T   T   T
  0.2498394925093647  0.8335701602399477  0.2379910909548397   T   T   T
  0.4165355520991822  0.7506377710734863  0.2377693821098852   T   T   T
  0.3332357338163641  0.9168366195732556  0.2380294721296514   T   T   T
  0.9998516260463611  0.5000395724716004  0.3584599394478212   T   T   T
  0.0822692960517611  0.5839124387321867  0.3586637323497488   T   T   T
  0.1659738577182810  0.6674049506961466  0.3587859915226878   T   T   T
  0.2474429656523001  0.5019648780277619  0.3574658566860238   T   T   T
  0.3320643355662466  0.5852355096469083  0.3578747313605291   T   T   T
  0.4163615641344641  0.6673519568436878  0.3574562617382966   T   T   T
  0.9996540593448958  0.7502909457436785  0.3582788458545943   T   T   T
  0.0830646410806695  0.8336532970344761  0.3582971360018299   T   T   T
  0.1665074817174844  0.9169878884081831  0.3584289679794793   T   T   T
  0.2493855546140483  0.7509258544958919  0.3584793952617547   T   T   T
  0.3332599855306602  0.8334866275062497  0.3584440005509498   T   T   T
  0.4166398654500901  0.9166797271224906  0.3583510900630869   T   T   T
  0.5000000000000000  0.0000000000000000  0.0000000000000000   F   F   F
  0.5833333333289374  0.0833333333347497  0.0000000000000000   F   F   F
  0.6666666666656269  0.1666666666638292  0.0000000000000000   F   F   F
  0.7499999999975415  0.0000000000000000  0.0000000000000000   F   F   F
  0.8333333333313959  0.0833333333347497  0.0000000000000000   F   F   F
  0.9166666666680854  0.1666666666638292  0.0000000000000000   F   F   F
  0.4999999999970228  0.2499999999985789  0.0000000000000000   F   F   F
  0.5833333333308772  0.3333333333333357  0.0000000000000000   F   F   F
  0.6666666666647316  0.4166666666680854  0.0000000000000000   F   F   F
  0.7499999999994813  0.2499999999985789  0.0000000000000000   F   F   F
  0.8333333333333357  0.3333333333333357  0.0000000000000000   F   F   F
  0.9166666666622731  0.4166666666680854  0.0000000000000000   F   F   F
  0.5833333333325115  0.0000000000000000  0.1199752285000031   F   F   F
  0.5000000000005969  0.1666666666638292  0.1199752285000031   F   F   F
  0.6666666666663659  0.0833333333347497  0.1199752285000031   F   F   F
  0.8333333333300601  0.0000000000000000  0.1199752285000031   F   F   F
  0.7499999999981455  0.1666666666638292  0.1199752285000031   F   F   F
  0.9166666666639145  0.0833333333347497  0.1199752285000031   F   F   F
  0.5833333333344513  0.2499999999985789  0.1199752285000031   F   F   F
  0.4999999999997016  0.4166666666680854  0.1199752285000031   F   F   F
  0.6666666666633958  0.3333333333333357  0.1199752285000031   F   F   F
  0.8333333333319928  0.2499999999985789  0.1199752285000031   F   F   F
  0.7499999999972431  0.4166666666680854  0.1199752285000031   F   F   F
  0.9166666666658472  0.3333333333333357  0.1199752285000031   F   F   F
  0.5002114556831713  0.0830289736160793  0.2377652873780402   T   T   T
  0.6666860185447470 -0.0000031956876804  0.2379878152913668   T   T   T
  0.5833002680232930  0.1667378404738810  0.2380421259085488   T   T   T
  0.7501572023799387  0.0831144068946384  0.2379024936629575   T   T   T
  0.9166329412544549  0.0000527335167828  0.2380261206711120   T   T   T
  0.8333767947684606  0.1666207265743385  0.2380342853414149   T   T   T
  0.4994208909048484  0.3338499111123228  0.2386776372344616   T   T   T
  0.6669420451793970  0.2494310049806359  0.2377192220494728   T   T   T
  0.5838911708394476  0.4160654152682914  0.2374145460648341   T   T   T
  0.7503446483112387  0.3329846241422226  0.2379128052950244   T   T   T
  0.9166571779660062  0.2499752520945730  0.2380361162090793   T   T   T
  0.8333479021091798  0.4166271043968221  0.2380228062755690   T   T   T
  0.5000625279888503  0.9999046163890396  0.3584324775235141   T   T   T
  0.5832265103325910  0.0832559063584723  0.3585088206071744   T   T   T
  0.6670055998383398  0.1659704413301944  0.3582451135132051   T   T   T
  0.7499667338161138 -0.0001088728887315  0.3584936235646018   T   T   T
  0.8333222107912008  0.0833414583267504  0.3584646145095520   T   T   T
  0.9167317073546383  0.1666668350484335  0.3584155698960410   T   T   T
  0.4993372515115883  0.2498062579030640  0.3575602457133826   T   T   T
  0.5842067076160004  0.3323636277213841  0.3572328657012964   T   T   T
  0.6671820294577114  0.4163271914504727  0.3583827365735143   T   T   T
  0.7502178332435004  0.2498332411913645  0.3586945342080159   T   T   T
  0.8334132634767077  0.3332714953875688  0.3584821823987233   T   T   T
  0.9166569921290604  0.4167152256160822  0.3583230235120596   T   T   T
  0.4999999999989626  0.4999999999971649  0.0000000000000000   F   F   F
  0.5833333333328170  0.5833333333319146  0.0000000000000000   F   F   F
  0.6666666666666643  0.6666666666666643  0.0000000000000000   F   F   F
  0.7500000000014211  0.4999999999971649  0.0000000000000000   F   F   F
  0.8333333333303585  0.5833333333319146  0.0000000000000000   F   F   F
  0.9166666666642129  0.6666666666666643  0.0000000000000000   F   F   F
  0.4999999999980602  0.7500000000014211  0.0000000000000000   F   F   F
  0.5833333333347497  0.8333333333305006  0.0000000000000000   F   F   F
  0.6666666666636942  0.9166666666652503  0.0000000000000000   F   F   F
  0.7499999999956088  0.7500000000014211  0.0000000000000000   F   F   F
  0.8333333333322983  0.8333333333305006  0.0000000000000000   F   F   F
  0.9166666666661456  0.9166666666652503  0.0000000000000000   F   F   F
  0.5833333333314741  0.4999999999971649  0.1199752285000031   F   F   F
  0.4999999999967244  0.6666666666666643  0.1199752285000031   F   F   F
  0.6666666666653285  0.5833333333319146  0.1199752285000031   F   F   F
  0.8333333333339326  0.4999999999971649  0.1199752285000031   F   F   F
  0.7499999999991829  0.6666666666666643  0.1199752285000031   F   F   F
  0.9166666666628700  0.5833333333319146  0.1199752285000031   F   F   F
  0.5833333333305788  0.7500000000014211  0.1199752285000031   F   F   F
  0.4999999999986642  0.9166666666652503  0.1199752285000031   F   F   F
  0.6666666666672683  0.8333333333305006  0.1199752285000031   F   F   F
  0.8333333333281203  0.7500000000014211  0.1199752285000031   F   F   F
  0.7499999999962057  0.9166666666652503  0.1199752285000031   F   F   F
  0.9166666666648098  0.8333333333305006  0.1199752285000031   F   F   F
  0.5001172140034714  0.5842259847452516  0.2370636503702944   T   T   T
  0.6669682050242136  0.4997238183679975  0.2378078756377406   T   T   T
  0.5835745818259824  0.6669756775553682  0.2378072982387415   T   T   T
  0.7500344865762605  0.5833133147465618  0.2380175012062723   T   T   T
  0.9165657237456908  0.5000729249018506  0.2380182652163342   T   T   T
  0.8332926978427555  0.6666925130854252  0.2379850353726180   T   T   T
  0.5000123406865883  0.8335608743467084  0.2379919674610324   T   T   T
  0.6667466153335051  0.7500189724599143  0.2380377013248803   T   T   T
  0.5833876946218890  0.9166232682134667  0.2380318066227629   T   T   T
  0.7499297902650731  0.8333784018543160  0.2379938975385829   T   T   T
  0.9165680308264764  0.7500363716755023  0.2379805475113619   T   T   T
  0.8332703031803026  0.9166980447978611  0.2380190348561657   T   T   T
  0.5008456676796063  0.5008734515056795  0.3543825781964829   T   T   T
  0.5842544329235709  0.5835043166164663  0.3575276429320461   T   T   T
  0.6667797234055999  0.6667653980363926  0.3586550047777636   T   T   T
  0.7502279481555775  0.4999436225046899  0.3584612507049424   T   T   T
  0.8333091221547442  0.5833865338884233  0.3584116741793422   T   T   T
  0.9162978280557772  0.6668929492458043  0.3584022359435824   T   T   T
  0.5000643189459191  0.7500498726522932  0.3583467188785201   T   T   T
  0.5833845258005503  0.8333525361695494  0.3584151647434236   T   T   T
  0.6666588307382439  0.9166609895533943  0.3584478064541625   T   T   T
  0.7499416325299560  0.7500407327754899  0.3584422225987328   T   T   T
  0.8331634369755301  0.8334271164929448  0.3583791291974963   T   T   T
  0.9165676637673870  0.9167971107595680  0.3583093627988581   T   T   T
  0.4181978532356006  0.5712351131791369  0.5286378146702969   T   T   T
  0.5409548460442454  0.5474224272904149  0.5245439783553555   T   T   T
  0.3959632524537541  0.2533475687520035  0.5258700475019787   T   T   T
  0.4281414386753022  0.3048510064048695  0.5168944153335140   T   T   T
  0.5062877100125535  0.2771545382831805  0.5147128311926958   T   T   T
  0.5372436747446001  0.3249652176822911  0.5120529665229439   T   T   T
  0.4883768925746119  0.4040295226926732  0.5106148855689469   T   T   T
  0.4095450634080630  0.4335677941167287  0.5073424935964432   T   T   T
  0.3792598201738003  0.3846299428763214  0.5129106384540404   T   T   T
  0.4862866301655552  0.5272744352629702  0.5222378981448775   T   T   T
  0.5122621489151089  0.6275380441885471  0.5338666203762181   T   T   T
  0.3019184274124629  0.4152432267088773  0.5170023489805076   T   T   T
  0.5212709064946849  0.4500784965296403  0.5115481429776016   T   T   T
  0.5445053877599971  0.2159304372683629  0.5173970275064179   T   T   T
  0.5985516029889307  0.3013607560337208  0.5140321841490176   T   T   T
  0.3717893744446175  0.4947234257614411  0.5069977104966668   T   T   T
  0.2799367064000266  0.3817516033124502  0.5046359925336056   T   T   T
  0.2689763359999086  0.4703651074214775  0.5031197371509928   T   T   T
  0.5786729466762842  0.4232311594608023  0.5067495937266717   T   T   T
  0.3650685054446691  0.2646787338325294  0.5736583020192585   T   T   T
  0.4409541223526280  0.1935880264672114  0.5249591378531810   T   T   T
  0.3552943849810876  0.2609007713019624  0.4857605652642931   T   T   T
  0.5620990734894318  0.6345863404834471  0.5307146396051809   T   T   T
  0.4714565469564089  0.6602486944885413  0.4941342556798408   T   T   T
  0.4843719614545567  0.6458644334339481  0.5827971772081743   T   T   T
 
  0.00000000E+00  0.00000000E+00  0.00000000E+00
  0.00000000E+00  0.00000000E+00  0.00000000E+00
  0.00000000E+00  0.00000000E+00  0.00000000E+00
  0.00000000E+00  0.00000000E+00  0.00000000E+00
  0.00000000E+00  0.00000000E+00  0.00000000E+00
  0.00000000E+00  0.00000000E+00  0.00000000E+00
  0.00000000E+00  0.00000000E+00  0.00000000E+00
  0.00000000E+00  0.00000000E+00  0.00000000E+00
  0.00000000E+00  0.00000000E+00  0.00000000E+00
  0.00000000E+00  0.00000000E+00  0.00000000E+00
  0.00000000E+00  0.00000000E+00  0.00000000E+00
  0.00000000E+00  0.00000000E+00  0.00000000E+00
  0.00000000E+00  0.00000000E+00  0.00000000E+00
  0.00000000E+00  0.00000000E+00  0.00000000E+00
  0.00000000E+00  0.00000000E+00  0.00000000E+00
  0.00000000E+00  0.00000000E+00  0.00000000E+00
  0.00000000E+00  0.00000000E+00  0.00000000E+00
  0.00000000E+00  0.00000000E+00  0.00000000E+00
  0.00000000E+00  0.00000000E+00  0.00000000E+00
  0.00000000E+00  0.00000000E+00  0.00000000E+00
  0.00000000E+00  0.00000000E+00  0.00000000E+00
  0.00000000E+00  0.00000000E+00  0.00000000E+00
  0.00000000E+00  0.00000000E+00  0.00000000E+00
  0.00000000E+00  0.00000000E+00  0.00000000E+00
  0.00000000E+00  0.00000000E+00  0.00000000E+00
  0.00000000E+00  0.00000000E+00  0.00000000E+00
  0.00000000E+00  0.00000000E+00  0.00000000E+00
  0.00000000E+00  0.00000000E+00  0.00000000E+00
  0.00000000E+00  0.00000000E+00  0.00000000E+00
  0.00000000E+00  0.00000000E+00  0.00000000E+00
  0.00000000E+00  0.00000000E+00  0.00000000E+00
  0.00000000E+00  0.00000000E+00  0.00000000E+00
  0.00000000E+00  0.00000000E+00  0.00000000E+00
  0.00000000E+00  0.00000000E+00  0.00000000E+00
  0.00000000E+00  0.00000000E+00  0.00000000E+00
  0.00000000E+00  0.00000000E+00  0.00000000E+00
  0.00000000E+00  0.00000000E+00  0.00000000E+00
  0.00000000E+00  0.00000000E+00  0.00000000E+00
  0.00000000E+00  0.00000000E+00  0.00000000E+00
  0.00000000E+00  0.00000000E+00  0.00000000E+00
  0.00000000E+00  0.00000000E+00  0.00000000E+00
  0.00000000E+00  0.00000000E+00  0.00000000E+00
  0.00000000E+00  0.00000000E+00  0.00000000E+00
  0.00000000E+00  0.00000000E+00  0.00000000E+00
  0.00000000E+00  0.00000000E+00  0.00000000E+00
  0.00000000E+00  0.00000000E+00  0.00000000E+00
  0.00000000E+00  0.00000000E+00  0.00000000E+00
  0.00000000E+00  0.00000000E+00  0.00000000E+00
  0.00000000E+00  0.00000000E+00  0.00000000E+00
  0.00000000E+00  0.00000000E+00  0.00000000E+00
  0.00000000E+00  0.00000000E+00  0.00000000E+00
  0.00000000E+00  0.00000000E+00  0.00000000E+00
  0.00000000E+00  0.00000000E+00  0.00000000E+00
  0.00000000E+00  0.00000000E+00  0.00000000E+00
  0.00000000E+00  0.00000000E+00  0.00000000E+00
  0.00000000E+00  0.00000000E+00  0.00000000E+00
  0.00000000E+00  0.00000000E+00  0.00000000E+00
  0.00000000E+00  0.00000000E+00  0.00000000E+00
  0.00000000E+00  0.00000000E+00  0.00000000E+00
  0.00000000E+00  0.00000000E+00  0.00000000E+00
  0.00000000E+00  0.00000000E+00  0.00000000E+00
  0.00000000E+00  0.00000000E+00  0.00000000E+00
  0.00000000E+00  0.00000000E+00  0.00000000E+00
  0.00000000E+00  0.00000000E+00  0.00000000E+00
  0.00000000E+00  0.00000000E+00  0.00000000E+00
  0.00000000E+00  0.00000000E+00  0.00000000E+00
  0.00000000E+00  0.00000000E+00  0.00000000E+00
  0.00000000E+00  0.00000000E+00  0.00000000E+00
  0.00000000E+00  0.00000000E+00  0.00000000E+00
  0.00000000E+00  0.00000000E+00  0.00000000E+00
  0.00000000E+00  0.00000000E+00  0.00000000E+00
  0.00000000E+00  0.00000000E+00  0.00000000E+00
  0.00000000E+00  0.00000000E+00  0.00000000E+00
  0.00000000E+00  0.00000000E+00  0.00000000E+00
  0.00000000E+00  0.00000000E+00  0.00000000E+00
  0.00000000E+00  0.00000000E+00  0.00000000E+00
  0.00000000E+00  0.00000000E+00  0.00000000E+00
  0.00000000E+00  0.00000000E+00  0.00000000E+00
  0.00000000E+00  0.00000000E+00  0.00000000E+00
  0.00000000E+00  0.00000000E+00  0.00000000E+00
  0.00000000E+00  0.00000000E+00  0.00000000E+00
  0.00000000E+00  0.00000000E+00  0.00000000E+00
  0.00000000E+00  0.00000000E+00  0.00000000E+00
  0.00000000E+00  0.00000000E+00  0.00000000E+00
  0.00000000E+00  0.00000000E+00  0.00000000E+00
  0.00000000E+00  0.00000000E+00  0.00000000E+00
  0.00000000E+00  0.00000000E+00  0.00000000E+00
  0.00000000E+00  0.00000000E+00  0.00000000E+00
  0.00000000E+00  0.00000000E+00  0.00000000E+00
  0.00000000E+00  0.00000000E+00  0.00000000E+00
  0.00000000E+00  0.00000000E+00  0.00000000E+00
  0.00000000E+00  0.00000000E+00  0.00000000E+00
  0.00000000E+00  0.00000000E+00  0.00000000E+00
  0.00000000E+00  0.00000000E+00  0.00000000E+00
  0.00000000E+00  0.00000000E+00  0.00000000E+00
  0.00000000E+00  0.00000000E+00  0.00000000E+00
  0.00000000E+00  0.00000000E+00  0.00000000E+00
  0.00000000E+00  0.00000000E+00  0.00000000E+00
  0.00000000E+00  0.00000000E+00  0.00000000E+00
  0.00000000E+00  0.00000000E+00  0.00000000E+00
  0.00000000E+00  0.00000000E+00  0.00000000E+00
  0.00000000E+00  0.00000000E+00  0.00000000E+00
  0.00000000E+00  0.00000000E+00  0.00000000E+00
  0.00000000E+00  0.00000000E+00  0.00000000E+00
  0.00000000E+00  0.00000000E+00  0.00000000E+00
  0.00000000E+00  0.00000000E+00  0.00000000E+00
  0.00000000E+00  0.00000000E+00  0.00000000E+00
  0.00000000E+00  0.00000000E+00  0.00000000E+00
  0.00000000E+00  0.00000000E+00  0.00000000E+00
  0.00000000E+00  0.00000000E+00  0.00000000E+00
  0.00000000E+00  0.00000000E+00  0.00000000E+00
  0.00000000E+00  0.00000000E+00  0.00000000E+00
  0.00000000E+00  0.00000000E+00  0.00000000E+00
  0.00000000E+00  0.00000000E+00  0.00000000E+00
  0.00000000E+00  0.00000000E+00  0.00000000E+00
  0.00000000E+00  0.00000000E+00  0.00000000E+00
  0.00000000E+00  0.00000000E+00  0.00000000E+00
  0.00000000E+00  0.00000000E+00  0.00000000E+00
  0.00000000E+00  0.00000000E+00  0.00000000E+00
  0.00000000E+00  0.00000000E+00  0.00000000E+00
  0.00000000E+00  0.00000000E+00  0.00000000E+00
  0.00000000E+00  0.00000000E+00  0.00000000E+00
  0.00000000E+00  0.00000000E+00  0.00000000E+00
  0.00000000E+00  0.00000000E+00  0.00000000E+00
  0.00000000E+00  0.00000000E+00  0.00000000E+00
  0.00000000E+00  0.00000000E+00  0.00000000E+00
  0.00000000E+00  0.00000000E+00  0.00000000E+00
  0.00000000E+00  0.00000000E+00  0.00000000E+00
  0.00000000E+00  0.00000000E+00  0.00000000E+00
  0.00000000E+00  0.00000000E+00  0.00000000E+00
  0.00000000E+00  0.00000000E+00  0.00000000E+00
  0.00000000E+00  0.00000000E+00  0.00000000E+00
  0.00000000E+00  0.00000000E+00  0.00000000E+00
  0.00000000E+00  0.00000000E+00  0.00000000E+00
  0.00000000E+00  0.00000000E+00  0.00000000E+00
  0.00000000E+00  0.00000000E+00  0.00000000E+00
  0.00000000E+00  0.00000000E+00  0.00000000E+00
  0.00000000E+00  0.00000000E+00  0.00000000E+00
  0.00000000E+00  0.00000000E+00  0.00000000E+00
  0.00000000E+00  0.00000000E+00  0.00000000E+00
  0.00000000E+00  0.00000000E+00  0.00000000E+00
  0.00000000E+00  0.00000000E+00  0.00000000E+00
  0.00000000E+00  0.00000000E+00  0.00000000E+00
  0.00000000E+00  0.00000000E+00  0.00000000E+00
  0.00000000E+00  0.00000000E+00  0.00000000E+00
  0.00000000E+00  0.00000000E+00  0.00000000E+00
  0.00000000E+00  0.00000000E+00  0.00000000E+00
  0.00000000E+00  0.00000000E+00  0.00000000E+00
  0.00000000E+00  0.00000000E+00  0.00000000E+00
  0.00000000E+00  0.00000000E+00  0.00000000E+00
  0.00000000E+00  0.00000000E+00  0.00000000E+00
  0.00000000E+00  0.00000000E+00  0.00000000E+00
  0.00000000E+00  0.00000000E+00  0.00000000E+00
  0.00000000E+00  0.00000000E+00  0.00000000E+00
  0.00000000E+00  0.00000000E+00  0.00000000E+00
  0.00000000E+00  0.00000000E+00  0.00000000E+00
  0.00000000E+00  0.00000000E+00  0.00000000E+00
  0.00000000E+00  0.00000000E+00  0.00000000E+00
  0.00000000E+00  0.00000000E+00  0.00000000E+00
  0.00000000E+00  0.00000000E+00  0.00000000E+00
  0.00000000E+00  0.00000000E+00  0.00000000E+00
  0.00000000E+00  0.00000000E+00  0.00000000E+00
  0.00000000E+00  0.00000000E+00  0.00000000E+00
  0.00000000E+00  0.00000000E+00  0.00000000E+00
  0.00000000E+00  0.00000000E+00  0.00000000E+00
  0.00000000E+00  0.00000000E+00  0.00000000E+00
  0.00000000E+00  0.00000000E+00  0.00000000E+00
  0.00000000E+00  0.00000000E+00  0.00000000E+00
  0.00000000E+00  0.00000000E+00  0.00000000E+00
  0.00000000E+00  0.00000000E+00  0.00000000E+00
  0.00000000E+00  0.00000000E+00  0.00000000E+00
  0.00000000E+00  0.00000000E+00  0.00000000E+00
  0.00000000E+00  0.00000000E+00  0.00000000E+00
  0.00000000E+00  0.00000000E+00  0.00000000E+00
  0.00000000E+00  0.00000000E+00  0.00000000E+00
  0.00000000E+00  0.00000000E+00  0.00000000E+00
  0.00000000E+00  0.00000000E+00  0.00000000E+00
  0.00000000E+00  0.00000000E+00  0.00000000E+00
  0.00000000E+00  0.00000000E+00  0.00000000E+00
  0.00000000E+00  0.00000000E+00  0.00000000E+00
  0.00000000E+00  0.00000000E+00  0.00000000E+00
  0.00000000E+00  0.00000000E+00  0.00000000E+00
  0.00000000E+00  0.00000000E+00  0.00000000E+00
  0.00000000E+00  0.00000000E+00  0.00000000E+00
  0.00000000E+00  0.00000000E+00  0.00000000E+00
  0.00000000E+00  0.00000000E+00  0.00000000E+00
  0.00000000E+00  0.00000000E+00  0.00000000E+00
  0.00000000E+00  0.00000000E+00  0.00000000E+00
  0.00000000E+00  0.00000000E+00  0.00000000E+00
  0.00000000E+00  0.00000000E+00  0.00000000E+00
  0.00000000E+00  0.00000000E+00  0.00000000E+00
  0.00000000E+00  0.00000000E+00  0.00000000E+00
  0.00000000E+00  0.00000000E+00  0.00000000E+00
  0.00000000E+00  0.00000000E+00  0.00000000E+00
  0.00000000E+00  0.00000000E+00  0.00000000E+00
  0.00000000E+00  0.00000000E+00  0.00000000E+00
  0.00000000E+00  0.00000000E+00  0.00000000E+00
  0.00000000E+00  0.00000000E+00  0.00000000E+00
  0.00000000E+00  0.00000000E+00  0.00000000E+00
  0.00000000E+00  0.00000000E+00  0.00000000E+00
  0.00000000E+00  0.00000000E+00  0.00000000E+00
  0.00000000E+00  0.00000000E+00  0.00000000E+00
  0.00000000E+00  0.00000000E+00  0.00000000E+00
  0.00000000E+00  0.00000000E+00  0.00000000E+00
  0.00000000E+00  0.00000000E+00  0.00000000E+00
  0.00000000E+00  0.00000000E+00  0.00000000E+00
  0.00000000E+00  0.00000000E+00  0.00000000E+00
  0.00000000E+00  0.00000000E+00  0.00000000E+00
  0.00000000E+00  0.00000000E+00  0.00000000E+00
  0.00000000E+00  0.00000000E+00  0.00000000E+00
  0.00000000E+00  0.00000000E+00  0.00000000E+00
  0.00000000E+00  0.00000000E+00  0.00000000E+00
  0.00000000E+00  0.00000000E+00  0.00000000E+00
  0.00000000E+00  0.00000000E+00  0.00000000E+00
  0.00000000E+00  0.00000000E+00  0.00000000E+00
  0.00000000E+00  0.00000000E+00  0.00000000E+00
  0.00000000E+00  0.00000000E+00  0.00000000E+00
