Au  O  N  C  H Au 
 1.0000000000000000
    12.4681918409999994    0.0000000000000000    0.0000000000000000
     0.0000000000000000   11.7551239999000003    0.0000000000000000
     0.0000000000000000    0.0000000000000000   20.0000000000000000
 Au  O   N   C   H   Au 
  36   2   4   8  10  36
Selective dynamics
Cartesian
 12.4627734079556589 11.7512643988941718  4.3581707340000255   T   T   T
  4.1563060339844258 11.7500495891146599  4.3480572260000381   T   T   T
  8.3261994620632240 11.7437343074398708  4.3579702760000325   T   T   T
 12.4664878880302048  2.9330429089947363  4.3554043439999637   T   T   T
  4.1551941804834192  2.9359489954683737  4.3110212780000259   T   T   T
  8.3362079576946897  2.9232577180789012  4.3464525999999646   T   T   T
  0.0054258778016623  5.8831601802688338  4.3513393620000320   T   T   T
  4.1540937266501574  5.8860321122296417  4.3399673160000418   T   T   T
  8.3268255996956295  5.8860459056921570  4.3305715840000403   T   T   T
  0.0077195662709628  8.8144456911725619  4.3597351379999338   T   T   T
  4.1498401705862928  8.8280579449110572  4.3417230599999366   T   T   T
  8.3234257656635311  8.8216825698668888  4.3458514900000020   T   T   T
  2.0495299990719200  1.4362528618563535  5.9238510560000179   T   T   T
  6.2851618040522022  1.4178625557636853  5.9150379320000459   T   T   T
 10.4038098689572340  1.4569331237043688  5.9494112279999456   T   T   T
  2.0673249041975543  4.3828872638651060  5.9196925739999520   T   T   T
  6.2838498934257982  4.3692403090006140  5.8710560020000457   T   T   T
 10.4222036662226021  4.3913508649816304  5.9291744159999382   T   T   T
  2.0806343448912048  7.3389900714796754  5.9591221220000543   T   T   T
  6.2684572946693695  7.3615656096190829  5.9077939559999502   T   T   T
 10.4188095102050493  7.3565310698633244  5.9378904579999423   T   T   T
  2.0549251128570125 10.2749193500785836  5.9447470560000681   T   T   T
  6.2590971761841869 10.2818913717230114  5.9411002699999917   T   T   T
 10.4195535146421676 10.2956093193079230  5.9346213279999915   T   T   T
 12.4635182265657054 11.7529972887271921  7.2630415199999740   T   T   T
  4.1560538448553324 11.7187278249389575  7.1919989440000620   T   T   T
  8.3492073069763304 11.7395561696104469  7.2511586640000303   T   T   T
  0.0138649497597597  2.9197426374227353  7.2298954999999401   T   T   T
  4.1989793020614536  2.8650958366299202  7.0855236219999540   T   T   T
  8.3262279892862132  2.9198190774676087  7.2073239040000203   T   T   T
  0.0205323951431685  5.8675120953967506  7.2128546179999375   T   T   T
  4.2077860385540973  5.8256426629950910  7.1318614499999455   T   T   T
  8.3489613806199614  5.8560814222233253  7.1414351020000320   T   T   T
  0.0041508929722571  8.8180940937430918  7.2389190260000200   T   T   T
  4.1662387117881199  8.8094040360403056  7.1851044720000345   T   T   T
  8.3467800966405861  8.8353862490823190  7.1957376800000361   T   T   T
 11.1000957275666234  9.4631179253425515 10.8741444967068421   T   T   T
 15.4448464604035713 11.0435260864687343 11.6736031221269183   T   T   T
 13.8666990072433158 12.5419792358443054 10.8500751473681820   T   T   T
 10.4849262713064224 12.2523984489474742  9.9848040047001092   T   T   T
 13.2829263032775682 10.2313830503974490 11.2821542580677772   T   T   T
 11.9980432090144120 13.8895739328656322  9.9845438537077520   T   T   T
 11.6447091491485928 11.7007116625198275 10.4483616666422545   T   T   T
 12.5535753099368232 12.7233738590931438 10.4382081709928691   T   T   T
 11.9304183870645364 10.3679323256162785 10.8707751968379984   T   T   T
 14.2886385075027960 11.2643146887522008 11.2955140020100995   T   T   T
 10.7478190618882863 13.5714278291591661  9.7191816509750577   T   T   T
 14.8049467255807699 13.6572374353110266 10.8246929182144473   T   T   T
  9.2122281865993223 11.5968465532929059  9.8005242519148705   T   T   T
 13.6974655175630513  8.9086868373565995 11.7384039789739614   T   T   T
  9.9958982292937897 14.2483791618685878  9.3367041684308738   T   T   T
 14.8912134344495755 14.0250942112079553  9.7975718750225269   T   T   T
 15.7957753241804042 13.3595978464154648 11.1768227427382474   T   T   T
 14.4255907466747395 14.4547797999574392 11.4710470996525018   T   T   T
  8.4843276660666387 12.3145916730895078  9.4135845341080664   T   T   T
  9.3432264130220268 10.7815545529650691  9.0848246509120898   T   T   T
  8.8762156932401162 11.2152351712642862 10.7677931945635716   T   T   T
 12.8896720298604475  8.1745221187019528 11.7017831227850539   T   T   T
 14.0625274564339637  8.9930196635210091 12.7669931900873852   T   T   T
 14.5255073644859216  8.5662613418498967 11.1095668539793042   T   T   T
  2.0780319739156434  1.4693904999875000  0.0000000000000000   F   F   F
  6.2340959204999997  1.4693904999875000  0.0000000000000000   F   F   F
 10.3901598670843569  1.4693904999875000  0.0000000000000000   F   F   F
  2.0780319739156434  4.4081714999625001  0.0000000000000000   F   F   F
  6.2340959204999997  4.4081714999625001  0.0000000000000000   F   F   F
 10.3901598670843569  4.4081714999625001  0.0000000000000000   F   F   F
  2.0780319739156434  7.3469524999375002  0.0000000000000000   F   F   F
  6.2340959204999997  7.3469524999375002  0.0000000000000000   F   F   F
 10.3901598670843569  7.3469524999375002  0.0000000000000000   F   F   F
  2.0780319739156434 10.2857334999124994  0.0000000000000000   F   F   F
  6.2340959204999997 10.2857334999124994  0.0000000000000000   F   F   F
 10.3901598670843569 10.2857334999124994  0.0000000000000000   F   F   F
  0.0000000000000000  0.0000000000000000  1.4693905000000020   F   F   F
  4.1560639465843554  0.0000000000000000  1.4693905000000020   F   F   F
  8.3121278944156423  0.0000000000000000  1.4693905000000020   F   F   F
  0.0000000000000000  2.9387809999750001  1.4693905000000020   F   F   F
  4.1560639465843554  2.9387809999750001  1.4693905000000020   F   F   F
  8.3121278944156423  2.9387809999750001  1.4693905000000020   F   F   F
  0.0000000000000000  5.8775619999500002  1.4693905000000020   F   F   F
  4.1560639465843554  5.8775619999500002  1.4693905000000020   F   F   F
  8.3121278944156423  5.8775619999500002  1.4693905000000020   F   F   F
  0.0000000000000000  8.8163429999250003  1.4693905000000020   F   F   F
  4.1560639465843554  8.8163429999250003  1.4693905000000020   F   F   F
  8.3121278944156423  8.8163429999250003  1.4693905000000020   F   F   F
  2.0780319739156434  1.4693904999875000  2.9387810000000059   F   F   F
  6.2340959204999997  1.4693904999875000  2.9387810000000059   F   F   F
 10.3901598670843569  1.4693904999875000  2.9387810000000059   F   F   F
  2.0780319739156434  4.4081714999625001  2.9387810000000059   F   F   F
  6.2340959204999997  4.4081714999625001  2.9387810000000059   F   F   F
 10.3901598670843569  4.4081714999625001  2.9387810000000059   F   F   F
  2.0780319739156434  7.3469524999375002  2.9387810000000059   F   F   F
  6.2340959204999997  7.3469524999375002  2.9387810000000059   F   F   F
 10.3901598670843569  7.3469524999375002  2.9387810000000059   F   F   F
  2.0780319739156434 10.2857334999124994  2.9387810000000059   F   F   F
  6.2340959204999997 10.2857334999124994  2.9387810000000059   F   F   F
 10.3901598670843569 10.2857334999124994  2.9387810000000059   F   F   F
