Ru                                      
   1.00000000000000     
    18.9881999495999985    0.0000000000000000    0.0000000000000000
    -5.4251999855999999    9.3967220160000000    0.0000000000000000
     0.0000000000000000    0.0000000000000000   21.4363579450000010
   Ru
    84
Selective dynamics
Direct
  0.0476185722258506  0.1666675061083325  0.2001739733964882   F   F   F
  0.0476185722258506  0.4166675061083325  0.2001739733964882   F   F   F
  0.0476185722258506  0.6666675061083325  0.2001739733964882   F   F   F
  0.0476185722258506  0.9166675061083325  0.2001739733964882   F   F   F
  0.1904757150829965  0.1666675061083325  0.2001739733964882   F   F   F
  0.1904757150829965  0.4166675061083325  0.2001739733964882   F   F   F
  0.1904757150829965  0.6666675061083325  0.2001739733964882   F   F   F
  0.1904757150829965  0.9166675061083325  0.2001739733964882   F   F   F
  0.3333328579401353  0.1666675061083325  0.2001739733964882   F   F   F
  0.3333328579401353  0.4166675061083325  0.2001739733964882   F   F   F
  0.3333328579401353  0.6666675061083325  0.2001739733964882   F   F   F
  0.3333328579401353  0.9166675061083325  0.2001739733964882   F   F   F
  0.4761900007972812  0.1666675061083325  0.2001739733964882   F   F   F
  0.4761900007972812  0.4166675061083325  0.2001739733964882   F   F   F
  0.4761900007972812  0.6666675061083325  0.2001739733964882   F   F   F
  0.4761900007972812  0.9166675061083325  0.2001739733964882   F   F   F
  0.6190471436544200  0.1666675061083325  0.2001739733964882   F   F   F
  0.6190471436544200  0.4166675061083325  0.2001739733964882   F   F   F
  0.6190471436544200  0.6666675061083325  0.2001739733964882   F   F   F
  0.6190471436544200  0.9166675061083325  0.2001739733964882   F   F   F
  0.7619042865115659  0.1666675061083325  0.2001739733964882   F   F   F
  0.7619042865115659  0.4166675061083325  0.2001739733964882   F   F   F
  0.7619042865115659  0.6666675061083325  0.2001739733964882   F   F   F
  0.7619042865115659  0.9166675061083325  0.2001739733964882   F   F   F
  0.9047614293687047  0.1666675061083325  0.2001739733964882   F   F   F
  0.9047614293687047  0.4166675061083325  0.2001739733964882   F   F   F
  0.9047614293687047  0.6666675061083325  0.2001739733964882   F   F   F
  0.9047614293687047  0.9166675061083325  0.2001739733964882   F   F   F
  0.0952385748978628  0.0833325013410686  0.1000936681737272   F   F   F
  0.0952385748978628  0.3333325013410686  0.1000936681737272   F   F   F
  0.0952385748978628  0.5833325013410686  0.1000936681737272   F   F   F
  0.0952385748978628  0.8333325013410686  0.1000936681737272   F   F   F
  0.2380957177550087  0.0833325013410686  0.1000936681737272   F   F   F
  0.2380957177550087  0.3333325013410686  0.1000936681737272   F   F   F
  0.2380957177550087  0.5833325013410686  0.1000936681737272   F   F   F
  0.2380957177550087  0.8333325013410686  0.1000936681737272   F   F   F
  0.3809528606121475  0.0833325013410686  0.1000936681737272   F   F   F
  0.3809528606121475  0.3333325013410686  0.1000936681737272   F   F   F
  0.3809528606121475  0.5833325013410686  0.1000936681737272   F   F   F
  0.3809528606121475  0.8333325013410686  0.1000936681737272   F   F   F
  0.5238100034692934  0.0833325013410686  0.1000936681737272   F   F   F
  0.5238100034692934  0.3333325013410686  0.1000936681737272   F   F   F
  0.5238100034692934  0.5833325013410686  0.1000936681737272   F   F   F
  0.5238100034692934  0.8333325013410686  0.1000936681737272   F   F   F
  0.6666671463264322  0.0833325013410686  0.1000936681737272   F   F   F
  0.6666671463264322  0.3333325013410686  0.1000936681737272   F   F   F
  0.6666671463264322  0.5833325013410686  0.1000936681737272   F   F   F
  0.6666671463264322  0.8333325013410686  0.1000936681737272   F   F   F
  0.8095242891835781  0.0833325013410686  0.1000936681737272   F   F   F
  0.8095242891835781  0.3333325013410686  0.1000936681737272   F   F   F
  0.8095242891835781  0.5833325013410686  0.1000936681737272   F   F   F
  0.8095242891835781  0.8333325013410686  0.1000936681737272   F   F   F
  0.9523814320407240  0.0833325013410686  0.1000936681737272   F   F   F
  0.9523814320407240  0.3333325013410686  0.1000936681737272   F   F   F
  0.9523814320407240  0.5833325013410686  0.1000936681737272   F   F   F
  0.9523814320407240  0.8333325013410686  0.1000936681737272   F   F   F
  0.0476185722258506  0.1666675061083325  0.0000000214122196   F   F   F
  0.0476185722258506  0.4166675061083325  0.0000000214122196   F   F   F
  0.0476185722258506  0.6666675061083325  0.0000000214122196   F   F   F
  0.0476185722258506  0.9166675061083325  0.0000000214122196   F   F   F
  0.1904757150829965  0.1666675061083325  0.0000000214122196   F   F   F
  0.1904757150829965  0.4166675061083325  0.0000000214122196   F   F   F
  0.1904757150829965  0.6666675061083325  0.0000000214122196   F   F   F
  0.1904757150829965  0.9166675061083325  0.0000000214122196   F   F   F
  0.3333328579401353  0.1666675061083325  0.0000000214122196   F   F   F
  0.3333328579401353  0.4166675061083325  0.0000000214122196   F   F   F
  0.3333328579401353  0.6666675061083325  0.0000000214122196   F   F   F
  0.3333328579401353  0.9166675061083325  0.0000000214122196   F   F   F
  0.4761900007972812  0.1666675061083325  0.0000000214122196   F   F   F
  0.4761900007972812  0.4166675061083325  0.0000000214122196   F   F   F
  0.4761900007972812  0.6666675061083325  0.0000000214122196   F   F   F
  0.4761900007972812  0.9166675061083325  0.0000000214122196   F   F   F
  0.6190471436544200  0.1666675061083325  0.0000000214122196   F   F   F
  0.6190471436544200  0.4166675061083325  0.0000000214122196   F   F   F
  0.6190471436544200  0.6666675061083325  0.0000000214122196   F   F   F
  0.6190471436544200  0.9166675061083325  0.0000000214122196   F   F   F
  0.7619042865115659  0.1666675061083325  0.0000000214122196   F   F   F
  0.7619042865115659  0.4166675061083325  0.0000000214122196   F   F   F
  0.7619042865115659  0.6666675061083325  0.0000000214122196   F   F   F
  0.7619042865115659  0.9166675061083325  0.0000000214122196   F   F   F
  0.9047614293687047  0.1666675061083325  0.0000000214122196   F   F   F
  0.9047614293687047  0.4166675061083325  0.0000000214122196   F   F   F
  0.9047614293687047  0.6666675061083325  0.0000000214122196   F   F   F
  0.9047614293687047  0.9166675061083325  0.0000000214122196   F   F   F
 
  0.00000000E+00  0.00000000E+00  0.00000000E+00
  0.00000000E+00  0.00000000E+00  0.00000000E+00
  0.00000000E+00  0.00000000E+00  0.00000000E+00
  0.00000000E+00  0.00000000E+00  0.00000000E+00
  0.00000000E+00  0.00000000E+00  0.00000000E+00
  0.00000000E+00  0.00000000E+00  0.00000000E+00
  0.00000000E+00  0.00000000E+00  0.00000000E+00
  0.00000000E+00  0.00000000E+00  0.00000000E+00
  0.00000000E+00  0.00000000E+00  0.00000000E+00
  0.00000000E+00  0.00000000E+00  0.00000000E+00
  0.00000000E+00  0.00000000E+00  0.00000000E+00
  0.00000000E+00  0.00000000E+00  0.00000000E+00
  0.00000000E+00  0.00000000E+00  0.00000000E+00
  0.00000000E+00  0.00000000E+00  0.00000000E+00
  0.00000000E+00  0.00000000E+00  0.00000000E+00
  0.00000000E+00  0.00000000E+00  0.00000000E+00
  0.00000000E+00  0.00000000E+00  0.00000000E+00
  0.00000000E+00  0.00000000E+00  0.00000000E+00
  0.00000000E+00  0.00000000E+00  0.00000000E+00
  0.00000000E+00  0.00000000E+00  0.00000000E+00
  0.00000000E+00  0.00000000E+00  0.00000000E+00
  0.00000000E+00  0.00000000E+00  0.00000000E+00
  0.00000000E+00  0.00000000E+00  0.00000000E+00
  0.00000000E+00  0.00000000E+00  0.00000000E+00
  0.00000000E+00  0.00000000E+00  0.00000000E+00
  0.00000000E+00  0.00000000E+00  0.00000000E+00
  0.00000000E+00  0.00000000E+00  0.00000000E+00
  0.00000000E+00  0.00000000E+00  0.00000000E+00
  0.00000000E+00  0.00000000E+00  0.00000000E+00
  0.00000000E+00  0.00000000E+00  0.00000000E+00
  0.00000000E+00  0.00000000E+00  0.00000000E+00
  0.00000000E+00  0.00000000E+00  0.00000000E+00
  0.00000000E+00  0.00000000E+00  0.00000000E+00
  0.00000000E+00  0.00000000E+00  0.00000000E+00
  0.00000000E+00  0.00000000E+00  0.00000000E+00
  0.00000000E+00  0.00000000E+00  0.00000000E+00
  0.00000000E+00  0.00000000E+00  0.00000000E+00
  0.00000000E+00  0.00000000E+00  0.00000000E+00
  0.00000000E+00  0.00000000E+00  0.00000000E+00
  0.00000000E+00  0.00000000E+00  0.00000000E+00
  0.00000000E+00  0.00000000E+00  0.00000000E+00
  0.00000000E+00  0.00000000E+00  0.00000000E+00
  0.00000000E+00  0.00000000E+00  0.00000000E+00
  0.00000000E+00  0.00000000E+00  0.00000000E+00
  0.00000000E+00  0.00000000E+00  0.00000000E+00
  0.00000000E+00  0.00000000E+00  0.00000000E+00
  0.00000000E+00  0.00000000E+00  0.00000000E+00
  0.00000000E+00  0.00000000E+00  0.00000000E+00
  0.00000000E+00  0.00000000E+00  0.00000000E+00
  0.00000000E+00  0.00000000E+00  0.00000000E+00
  0.00000000E+00  0.00000000E+00  0.00000000E+00
  0.00000000E+00  0.00000000E+00  0.00000000E+00
  0.00000000E+00  0.00000000E+00  0.00000000E+00
  0.00000000E+00  0.00000000E+00  0.00000000E+00
  0.00000000E+00  0.00000000E+00  0.00000000E+00
  0.00000000E+00  0.00000000E+00  0.00000000E+00
  0.00000000E+00  0.00000000E+00  0.00000000E+00
  0.00000000E+00  0.00000000E+00  0.00000000E+00
  0.00000000E+00  0.00000000E+00  0.00000000E+00
  0.00000000E+00  0.00000000E+00  0.00000000E+00
  0.00000000E+00  0.00000000E+00  0.00000000E+00
  0.00000000E+00  0.00000000E+00  0.00000000E+00
  0.00000000E+00  0.00000000E+00  0.00000000E+00
  0.00000000E+00  0.00000000E+00  0.00000000E+00
  0.00000000E+00  0.00000000E+00  0.00000000E+00
  0.00000000E+00  0.00000000E+00  0.00000000E+00
  0.00000000E+00  0.00000000E+00  0.00000000E+00
  0.00000000E+00  0.00000000E+00  0.00000000E+00
  0.00000000E+00  0.00000000E+00  0.00000000E+00
  0.00000000E+00  0.00000000E+00  0.00000000E+00
  0.00000000E+00  0.00000000E+00  0.00000000E+00
  0.00000000E+00  0.00000000E+00  0.00000000E+00
  0.00000000E+00  0.00000000E+00  0.00000000E+00
  0.00000000E+00  0.00000000E+00  0.00000000E+00
  0.00000000E+00  0.00000000E+00  0.00000000E+00
  0.00000000E+00  0.00000000E+00  0.00000000E+00
  0.00000000E+00  0.00000000E+00  0.00000000E+00
  0.00000000E+00  0.00000000E+00  0.00000000E+00
  0.00000000E+00  0.00000000E+00  0.00000000E+00
  0.00000000E+00  0.00000000E+00  0.00000000E+00
  0.00000000E+00  0.00000000E+00  0.00000000E+00
  0.00000000E+00  0.00000000E+00  0.00000000E+00
  0.00000000E+00  0.00000000E+00  0.00000000E+00
  0.00000000E+00  0.00000000E+00  0.00000000E+00
