Ni                                      
   1.00000000000000     
    17.4159994126999997    0.0000000000000000    0.0000000000000000
    -4.9759998320000003    8.6186845275999993    0.0000000000000000
     0.0000000000000000    0.0000000000000000   21.0942993164000008
   Ni
    84
Selective dynamics
Direct
 -0.0000450862106962  0.2498694300861785  0.1885019971680132   T   T   T
 -0.0000450862106962  0.4998694300861780  0.1885019971680132   T   T   T
 -0.0000450862106962  0.7498694300861791  0.1885019971680132   T   T   T
 -0.0000450862106962  0.9998694300861791  0.1885019971680132   T   T   T
  0.1428120566464498  0.2498694300861785  0.1885019971680132   T   T   T
  0.1428120566464498  0.4998694300861780  0.1885019971680132   T   T   T
  0.1428120566464498  0.7498694300861791  0.1885019971680132   T   T   T
  0.1428120566464498  0.9998694300861791  0.1885019971680132   T   T   T
  0.2856691995035885  0.2498694300861785  0.1885019971680132   T   T   T
  0.2856691995035885  0.4998694300861780  0.1885019971680132   T   T   T
  0.2856691995035885  0.7498694300861791  0.1885019971680132   T   T   T
  0.2856691995035885  0.9998694300861791  0.1885019971680132   T   T   T
  0.4285263423607344  0.2498694300861785  0.1885019971680132   T   T   T
  0.4285263423607344  0.4998694300861780  0.1885019971680132   T   T   T
  0.4285263423607344  0.7498694300861791  0.1885019971680132   T   T   T
  0.4285263423607344  0.9998694300861791  0.1885019971680132   T   T   T
  0.5713834852178804  0.2498694300861785  0.1885019971680132   T   T   T
  0.5713834852178804  0.4998694300861780  0.1885019971680132   T   T   T
  0.5713834852178804  0.7498694300861791  0.1885019971680132   T   T   T
  0.5713834852178804  0.9998694300861791  0.1885019971680132   T   T   T
  0.7142406280750192  0.2498694300861785  0.1885019971680132   T   T   T
  0.7142406280750192  0.4998694300861780  0.1885019971680132   T   T   T
  0.7142406280750192  0.7498694300861791  0.1885019971680132   T   T   T
  0.7142406280750192  0.9998694300861791  0.1885019971680132   T   T   T
  0.8570977709321651  0.2498694300861785  0.1885019971680132   T   T   T
  0.8570977709321651  0.4998694300861780  0.1885019971680132   T   T   T
  0.8570977709321651  0.7498694300861791  0.1885019971680132   T   T   T
  0.8570977709321651  0.9998694300861791  0.1885019971680132   T   T   T
  0.0952395235841313  0.0833094835552164  0.0942524935020354   T   T   T
  0.0952395235841313  0.3333094835552165  0.0942524935020354   T   T   T
  0.0952395235841313  0.5833094835552156  0.0942524935020354   T   T   T
  0.0952395235841313  0.8333094835552156  0.0942524935020354   T   T   T
  0.2380966664412703  0.0833094835552164  0.0942524935020354   T   T   T
  0.2380966664412703  0.3333094835552165  0.0942524935020354   T   T   T
  0.2380966664412703  0.5833094835552156  0.0942524935020354   T   T   T
  0.2380966664412703  0.8333094835552156  0.0942524935020354   T   T   T
  0.3809538092984163  0.0833094835552164  0.0942524935020354   T   T   T
  0.3809538092984163  0.3333094835552165  0.0942524935020354   T   T   T
  0.3809538092984163  0.5833094835552156  0.0942524935020354   T   T   T
  0.3809538092984163  0.8333094835552156  0.0942524935020354   T   T   T
  0.5238109521555612  0.0833094835552164  0.0942524935020354   T   T   T
  0.5238109521555612  0.3333094835552165  0.0942524935020354   T   T   T
  0.5238109521555612  0.5833094835552156  0.0942524935020354   T   T   T
  0.5238109521555612  0.8333094835552156  0.0942524935020354   T   T   T
  0.6666680950127000  0.0833094835552164  0.0942524935020354   T   T   T
  0.6666680950127000  0.3333094835552165  0.0942524935020354   T   T   T
  0.6666680950127000  0.5833094835552156  0.0942524935020354   T   T   T
  0.6666680950127000  0.8333094835552156  0.0942524935020354   T   T   T
  0.8095252378698459  0.0833094835552164  0.0942524935020354   T   T   T
  0.8095252378698459  0.3333094835552165  0.0942524935020354   T   T   T
  0.8095252378698459  0.5833094835552156  0.0942524935020354   T   T   T
  0.8095252378698459  0.8333094835552156  0.0942524935020354   T   T   T
  0.9523823807269847  0.0833094835552164  0.0942524935020354   T   T   T
  0.9523823807269847  0.3333094835552165  0.0942524935020354   T   T   T
  0.9523823807269847  0.5833094835552156  0.0942524935020354   T   T   T
  0.9523823807269847  0.8333094835552156  0.0942524935020354   T   T   T
  0.0476185721907996  0.1666675060909810  0.0000000084382989   F   F   F
  0.0476185721907996  0.4166675060909810  0.0000000084382989   F   F   F
  0.0476185721907996  0.6666675060909810  0.0000000084382989   F   F   F
  0.0476185721907996  0.9166675060909810  0.0000000084382989   F   F   F
  0.1904757150479455  0.1666675060909810  0.0000000084382989   F   F   F
  0.1904757150479455  0.4166675060909810  0.0000000084382989   F   F   F
  0.1904757150479455  0.6666675060909810  0.0000000084382989   F   F   F
  0.1904757150479455  0.9166675060909810  0.0000000084382989   F   F   F
  0.3333328579050843  0.1666675060909810  0.0000000084382989   F   F   F
  0.3333328579050843  0.4166675060909810  0.0000000084382989   F   F   F
  0.3333328579050843  0.6666675060909810  0.0000000084382989   F   F   F
  0.3333328579050843  0.9166675060909810  0.0000000084382989   F   F   F
  0.4761900007622302  0.1666675060909810  0.0000000084382989   F   F   F
  0.4761900007622302  0.4166675060909810  0.0000000084382989   F   F   F
  0.4761900007622302  0.6666675060909810  0.0000000084382989   F   F   F
  0.4761900007622302  0.9166675060909810  0.0000000084382989   F   F   F
  0.6190471436193690  0.1666675060909810  0.0000000084382989   F   F   F
  0.6190471436193690  0.4166675060909810  0.0000000084382989   F   F   F
  0.6190471436193690  0.6666675060909810  0.0000000084382989   F   F   F
  0.6190471436193690  0.9166675060909810  0.0000000084382989   F   F   F
  0.7619042864765149  0.1666675060909810  0.0000000084382989   F   F   F
  0.7619042864765149  0.4166675060909810  0.0000000084382989   F   F   F
  0.7619042864765149  0.6666675060909810  0.0000000084382989   F   F   F
  0.7619042864765149  0.9166675060909810  0.0000000084382989   F   F   F
  0.9047614293336537  0.1666675060909810  0.0000000084382989   F   F   F
  0.9047614293336537  0.4166675060909810  0.0000000084382989   F   F   F
  0.9047614293336537  0.6666675060909810  0.0000000084382989   F   F   F
  0.9047614293336537  0.9166675060909810  0.0000000084382989   F   F   F
 
  0.00000000E+00  0.00000000E+00  0.00000000E+00
  0.00000000E+00  0.00000000E+00  0.00000000E+00
  0.00000000E+00  0.00000000E+00  0.00000000E+00
  0.00000000E+00  0.00000000E+00  0.00000000E+00
  0.00000000E+00  0.00000000E+00  0.00000000E+00
  0.00000000E+00  0.00000000E+00  0.00000000E+00
  0.00000000E+00  0.00000000E+00  0.00000000E+00
  0.00000000E+00  0.00000000E+00  0.00000000E+00
  0.00000000E+00  0.00000000E+00  0.00000000E+00
  0.00000000E+00  0.00000000E+00  0.00000000E+00
  0.00000000E+00  0.00000000E+00  0.00000000E+00
  0.00000000E+00  0.00000000E+00  0.00000000E+00
  0.00000000E+00  0.00000000E+00  0.00000000E+00
  0.00000000E+00  0.00000000E+00  0.00000000E+00
  0.00000000E+00  0.00000000E+00  0.00000000E+00
  0.00000000E+00  0.00000000E+00  0.00000000E+00
  0.00000000E+00  0.00000000E+00  0.00000000E+00
  0.00000000E+00  0.00000000E+00  0.00000000E+00
  0.00000000E+00  0.00000000E+00  0.00000000E+00
  0.00000000E+00  0.00000000E+00  0.00000000E+00
  0.00000000E+00  0.00000000E+00  0.00000000E+00
  0.00000000E+00  0.00000000E+00  0.00000000E+00
  0.00000000E+00  0.00000000E+00  0.00000000E+00
  0.00000000E+00  0.00000000E+00  0.00000000E+00
  0.00000000E+00  0.00000000E+00  0.00000000E+00
  0.00000000E+00  0.00000000E+00  0.00000000E+00
  0.00000000E+00  0.00000000E+00  0.00000000E+00
  0.00000000E+00  0.00000000E+00  0.00000000E+00
  0.00000000E+00  0.00000000E+00  0.00000000E+00
  0.00000000E+00  0.00000000E+00  0.00000000E+00
  0.00000000E+00  0.00000000E+00  0.00000000E+00
  0.00000000E+00  0.00000000E+00  0.00000000E+00
  0.00000000E+00  0.00000000E+00  0.00000000E+00
  0.00000000E+00  0.00000000E+00  0.00000000E+00
  0.00000000E+00  0.00000000E+00  0.00000000E+00
  0.00000000E+00  0.00000000E+00  0.00000000E+00
  0.00000000E+00  0.00000000E+00  0.00000000E+00
  0.00000000E+00  0.00000000E+00  0.00000000E+00
  0.00000000E+00  0.00000000E+00  0.00000000E+00
  0.00000000E+00  0.00000000E+00  0.00000000E+00
  0.00000000E+00  0.00000000E+00  0.00000000E+00
  0.00000000E+00  0.00000000E+00  0.00000000E+00
  0.00000000E+00  0.00000000E+00  0.00000000E+00
  0.00000000E+00  0.00000000E+00  0.00000000E+00
  0.00000000E+00  0.00000000E+00  0.00000000E+00
  0.00000000E+00  0.00000000E+00  0.00000000E+00
  0.00000000E+00  0.00000000E+00  0.00000000E+00
  0.00000000E+00  0.00000000E+00  0.00000000E+00
  0.00000000E+00  0.00000000E+00  0.00000000E+00
  0.00000000E+00  0.00000000E+00  0.00000000E+00
  0.00000000E+00  0.00000000E+00  0.00000000E+00
  0.00000000E+00  0.00000000E+00  0.00000000E+00
  0.00000000E+00  0.00000000E+00  0.00000000E+00
  0.00000000E+00  0.00000000E+00  0.00000000E+00
  0.00000000E+00  0.00000000E+00  0.00000000E+00
  0.00000000E+00  0.00000000E+00  0.00000000E+00
  0.00000000E+00  0.00000000E+00  0.00000000E+00
  0.00000000E+00  0.00000000E+00  0.00000000E+00
  0.00000000E+00  0.00000000E+00  0.00000000E+00
  0.00000000E+00  0.00000000E+00  0.00000000E+00
  0.00000000E+00  0.00000000E+00  0.00000000E+00
  0.00000000E+00  0.00000000E+00  0.00000000E+00
  0.00000000E+00  0.00000000E+00  0.00000000E+00
  0.00000000E+00  0.00000000E+00  0.00000000E+00
  0.00000000E+00  0.00000000E+00  0.00000000E+00
  0.00000000E+00  0.00000000E+00  0.00000000E+00
  0.00000000E+00  0.00000000E+00  0.00000000E+00
  0.00000000E+00  0.00000000E+00  0.00000000E+00
  0.00000000E+00  0.00000000E+00  0.00000000E+00
  0.00000000E+00  0.00000000E+00  0.00000000E+00
  0.00000000E+00  0.00000000E+00  0.00000000E+00
  0.00000000E+00  0.00000000E+00  0.00000000E+00
  0.00000000E+00  0.00000000E+00  0.00000000E+00
  0.00000000E+00  0.00000000E+00  0.00000000E+00
  0.00000000E+00  0.00000000E+00  0.00000000E+00
  0.00000000E+00  0.00000000E+00  0.00000000E+00
  0.00000000E+00  0.00000000E+00  0.00000000E+00
  0.00000000E+00  0.00000000E+00  0.00000000E+00
  0.00000000E+00  0.00000000E+00  0.00000000E+00
  0.00000000E+00  0.00000000E+00  0.00000000E+00
  0.00000000E+00  0.00000000E+00  0.00000000E+00
  0.00000000E+00  0.00000000E+00  0.00000000E+00
  0.00000000E+00  0.00000000E+00  0.00000000E+00
  0.00000000E+00  0.00000000E+00  0.00000000E+00
