Ru  C  H  O                             
   1.00000000000000     
    18.9881999495999985    0.0000000000000000    0.0000000000000000
    -5.4251999855999999    9.3967220160000000    0.0000000000000000
     0.0000000000000000    0.0000000000000000   21.4363579450000010
   Ru   C    H    O 
    84    17    20     6
Selective dynamics
Direct
  0.0476185722258506  0.1666675061083325  0.2001739733964882   F   F   F
  0.0476185722258506  0.4166675061083325  0.2001739733964882   F   F   F
  0.0476185722258506  0.6666675061083325  0.2001739733964882   F   F   F
  0.0476185722258506  0.9166675061083325  0.2001739733964882   F   F   F
  0.1904757150829965  0.1666675061083325  0.2001739733964882   F   F   F
  0.1904757150829965  0.4166675061083325  0.2001739733964882   F   F   F
  0.1904757150829965  0.6666675061083325  0.2001739733964882   F   F   F
  0.1904757150829965  0.9166675061083325  0.2001739733964882   F   F   F
  0.3333328579401353  0.1666675061083325  0.2001739733964882   F   F   F
  0.3333328579401353  0.4166675061083325  0.2001739733964882   F   F   F
  0.3333328579401353  0.6666675061083325  0.2001739733964882   F   F   F
  0.3333328579401353  0.9166675061083325  0.2001739733964882   F   F   F
  0.4761900007972812  0.1666675061083325  0.2001739733964882   F   F   F
  0.4761900007972812  0.4166675061083325  0.2001739733964882   F   F   F
  0.4761900007972812  0.6666675061083325  0.2001739733964882   F   F   F
  0.4761900007972812  0.9166675061083325  0.2001739733964882   F   F   F
  0.6190471436544200  0.1666675061083325  0.2001739733964882   F   F   F
  0.6190471436544200  0.4166675061083325  0.2001739733964882   F   F   F
  0.6190471436544200  0.6666675061083325  0.2001739733964882   F   F   F
  0.6190471436544200  0.9166675061083325  0.2001739733964882   F   F   F
  0.7619042865115659  0.1666675061083325  0.2001739733964882   F   F   F
  0.7619042865115659  0.4166675061083325  0.2001739733964882   F   F   F
  0.7619042865115659  0.6666675061083325  0.2001739733964882   F   F   F
  0.7619042865115659  0.9166675061083325  0.2001739733964882   F   F   F
  0.9047614293687047  0.1666675061083325  0.2001739733964882   F   F   F
  0.9047614293687047  0.4166675061083325  0.2001739733964882   F   F   F
  0.9047614293687047  0.6666675061083325  0.2001739733964882   F   F   F
  0.9047614293687047  0.9166675061083325  0.2001739733964882   F   F   F
  0.0952385748978628  0.0833325013410686  0.1000936681737272   F   F   F
  0.0952385748978628  0.3333325013410686  0.1000936681737272   F   F   F
  0.0952385748978628  0.5833325013410686  0.1000936681737272   F   F   F
  0.0952385748978628  0.8333325013410686  0.1000936681737272   F   F   F
  0.2380957177550087  0.0833325013410686  0.1000936681737272   F   F   F
  0.2380957177550087  0.3333325013410686  0.1000936681737272   F   F   F
  0.2380957177550087  0.5833325013410686  0.1000936681737272   F   F   F
  0.2380957177550087  0.8333325013410686  0.1000936681737272   F   F   F
  0.3809528606121475  0.0833325013410686  0.1000936681737272   F   F   F
  0.3809528606121475  0.3333325013410686  0.1000936681737272   F   F   F
  0.3809528606121475  0.5833325013410686  0.1000936681737272   F   F   F
  0.3809528606121475  0.8333325013410686  0.1000936681737272   F   F   F
  0.5238100034692934  0.0833325013410686  0.1000936681737272   F   F   F
  0.5238100034692934  0.3333325013410686  0.1000936681737272   F   F   F
  0.5238100034692934  0.5833325013410686  0.1000936681737272   F   F   F
  0.5238100034692934  0.8333325013410686  0.1000936681737272   F   F   F
  0.6666671463264322  0.0833325013410686  0.1000936681737272   F   F   F
  0.6666671463264322  0.3333325013410686  0.1000936681737272   F   F   F
  0.6666671463264322  0.5833325013410686  0.1000936681737272   F   F   F
  0.6666671463264322  0.8333325013410686  0.1000936681737272   F   F   F
  0.8095242891835781  0.0833325013410686  0.1000936681737272   F   F   F
  0.8095242891835781  0.3333325013410686  0.1000936681737272   F   F   F
  0.8095242891835781  0.5833325013410686  0.1000936681737272   F   F   F
  0.8095242891835781  0.8333325013410686  0.1000936681737272   F   F   F
  0.9523814320407240  0.0833325013410686  0.1000936681737272   F   F   F
  0.9523814320407240  0.3333325013410686  0.1000936681737272   F   F   F
  0.9523814320407240  0.5833325013410686  0.1000936681737272   F   F   F
  0.9523814320407240  0.8333325013410686  0.1000936681737272   F   F   F
  0.0476185722258506  0.1666675061083325  0.0000000214122196   F   F   F
  0.0476185722258506  0.4166675061083325  0.0000000214122196   F   F   F
  0.0476185722258506  0.6666675061083325  0.0000000214122196   F   F   F
  0.0476185722258506  0.9166675061083325  0.0000000214122196   F   F   F
  0.1904757150829965  0.1666675061083325  0.0000000214122196   F   F   F
  0.1904757150829965  0.4166675061083325  0.0000000214122196   F   F   F
  0.1904757150829965  0.6666675061083325  0.0000000214122196   F   F   F
  0.1904757150829965  0.9166675061083325  0.0000000214122196   F   F   F
  0.3333328579401353  0.1666675061083325  0.0000000214122196   F   F   F
  0.3333328579401353  0.4166675061083325  0.0000000214122196   F   F   F
  0.3333328579401353  0.6666675061083325  0.0000000214122196   F   F   F
  0.3333328579401353  0.9166675061083325  0.0000000214122196   F   F   F
  0.4761900007972812  0.1666675061083325  0.0000000214122196   F   F   F
  0.4761900007972812  0.4166675061083325  0.0000000214122196   F   F   F
  0.4761900007972812  0.6666675061083325  0.0000000214122196   F   F   F
  0.4761900007972812  0.9166675061083325  0.0000000214122196   F   F   F
  0.6190471436544200  0.1666675061083325  0.0000000214122196   F   F   F
  0.6190471436544200  0.4166675061083325  0.0000000214122196   F   F   F
  0.6190471436544200  0.6666675061083325  0.0000000214122196   F   F   F
  0.6190471436544200  0.9166675061083325  0.0000000214122196   F   F   F
  0.7619042865115659  0.1666675061083325  0.0000000214122196   F   F   F
  0.7619042865115659  0.4166675061083325  0.0000000214122196   F   F   F
  0.7619042865115659  0.6666675061083325  0.0000000214122196   F   F   F
  0.7619042865115659  0.9166675061083325  0.0000000214122196   F   F   F
  0.9047614293687047  0.1666675061083325  0.0000000214122196   F   F   F
  0.9047614293687047  0.4166675061083325  0.0000000214122196   F   F   F
  0.9047614293687047  0.6666675061083325  0.0000000214122196   F   F   F
  0.9047614293687047  0.9166675061083325  0.0000000214122196   F   F   F
  0.2008367877575138  0.1837499856748155  0.3005267544517362   T   T   T
  0.2896714480540870  0.2627986675546712  0.2950307360006238   T   T   T
  0.3358986428965435  0.4174068694847698  0.2998214978900899   T   T   T
  0.2898771897075902  0.4916295484821221  0.2940952420123550   T   T   T
  0.2016005094873701  0.4175808894380807  0.2998180866578971   T   T   T
  0.1594431490255817  0.2653422457419271  0.2991557642091761   T   T   T
  0.1932867671139231  0.9756425136250116  0.3485493799633027   T   T   T
  0.4146210434843076  0.4954221929307141  0.3369736506960537   T   T   T
  0.4639685419710294  0.4205679156681127  0.3522501543472156   T   T   T
  0.5609786180972026  0.3638119355553988  0.2955081308730616   T   T   T
  0.5141157095523228  0.2076884617994788  0.2975198634967630   T   T   T
  0.6475637553245563  0.4455245547251762  0.3046896917785671   T   T   T
  0.5644451040861808  0.1404947896681230  0.3000659242999879   T   T   T
  0.6971010951710691  0.3765870848338975  0.3002807179473286   T   T   T
  0.6511801265963869  0.2201792257210398  0.3004230004922935   T   T   T
  0.5197364214127369  0.4922883278375793  0.4081538158877843   T   T   T
  0.7610287877461895  0.6546788608276398  0.3521403190241089   T   T   T
  0.3201947913605460  0.2035692167476007  0.3089271383988363   T   T   T
  0.3222930347551956  0.6045125290256939  0.3081344040419997   T   T   T
  0.1717558073210439  0.4707357868256152  0.3211130134490097   T   T   T
  0.0606023089566617  0.0948197353439799  0.3214581918127893   T   T   T
  0.2512223575692049  0.0304913707356868  0.3745770686437800   T   T   T
  0.1482592249072660  0.8819817600194112  0.3743500349730770   T   T   T
  0.2055606910179336  0.9398008758081475  0.3028889388001630   T   T   T
  0.3966818241801905  0.5147754835610850  0.3836488162268623   T   T   T
  0.4223287850608490  0.3069956797725495  0.3624579255768565   T   T   T
  0.5170608347427939  0.6780812385141440  0.3328133168137856   T   T   T
  0.4590967025888366  0.1594538248060391  0.3264338703517414   T   T   T
  0.5348615342597624  0.0294257210475815  0.3153089653038367   T   T   T
  0.7539341010832570  0.4261584357211038  0.3267881507373878   T   T   T
  0.6839308831285345  0.1672222272278091  0.3164489704949245   T   T   T
  0.4826806878061352  0.4837216863916097  0.4491809816292061   T   T   T
  0.5542846449138746  0.4377481062826709  0.4186057151923352   T   T   T
  0.6167498556006619  0.6415834809101225  0.3694290223346566   T   T   T
  0.8014359766666835  0.6664425756753972  0.3124799624981250   T   T   T
  0.7725615138837705  0.7602503698947909  0.3662556911593657   T   T   T
  0.7719449131972596  0.6004166809242075  0.3912468450698635   T   T   T
  0.0774728359704184  0.1955924483118034  0.3137969579155442   T   T   T
  0.1594264447202564  0.0649763169268474  0.3401058865471706   T   T   T
  0.5150991940269107  0.4358310691238972  0.2990450680213149   T   T   T
  0.4652513244729735  0.6341597406846847  0.3091498087115183   T   T   T
  0.5738679209799024  0.6402417773643747  0.3961496452259564   T   T   T
  0.6767051456392424  0.5768968373522169  0.3338505521972907   T   T   T
 
  0.00000000E+00  0.00000000E+00  0.00000000E+00
  0.00000000E+00  0.00000000E+00  0.00000000E+00
  0.00000000E+00  0.00000000E+00  0.00000000E+00
  0.00000000E+00  0.00000000E+00  0.00000000E+00
  0.00000000E+00  0.00000000E+00  0.00000000E+00
  0.00000000E+00  0.00000000E+00  0.00000000E+00
  0.00000000E+00  0.00000000E+00  0.00000000E+00
  0.00000000E+00  0.00000000E+00  0.00000000E+00
  0.00000000E+00  0.00000000E+00  0.00000000E+00
  0.00000000E+00  0.00000000E+00  0.00000000E+00
  0.00000000E+00  0.00000000E+00  0.00000000E+00
  0.00000000E+00  0.00000000E+00  0.00000000E+00
  0.00000000E+00  0.00000000E+00  0.00000000E+00
  0.00000000E+00  0.00000000E+00  0.00000000E+00
  0.00000000E+00  0.00000000E+00  0.00000000E+00
  0.00000000E+00  0.00000000E+00  0.00000000E+00
  0.00000000E+00  0.00000000E+00  0.00000000E+00
  0.00000000E+00  0.00000000E+00  0.00000000E+00
  0.00000000E+00  0.00000000E+00  0.00000000E+00
  0.00000000E+00  0.00000000E+00  0.00000000E+00
  0.00000000E+00  0.00000000E+00  0.00000000E+00
  0.00000000E+00  0.00000000E+00  0.00000000E+00
  0.00000000E+00  0.00000000E+00  0.00000000E+00
  0.00000000E+00  0.00000000E+00  0.00000000E+00
  0.00000000E+00  0.00000000E+00  0.00000000E+00
  0.00000000E+00  0.00000000E+00  0.00000000E+00
  0.00000000E+00  0.00000000E+00  0.00000000E+00
  0.00000000E+00  0.00000000E+00  0.00000000E+00
  0.00000000E+00  0.00000000E+00  0.00000000E+00
  0.00000000E+00  0.00000000E+00  0.00000000E+00
  0.00000000E+00  0.00000000E+00  0.00000000E+00
  0.00000000E+00  0.00000000E+00  0.00000000E+00
  0.00000000E+00  0.00000000E+00  0.00000000E+00
  0.00000000E+00  0.00000000E+00  0.00000000E+00
  0.00000000E+00  0.00000000E+00  0.00000000E+00
  0.00000000E+00  0.00000000E+00  0.00000000E+00
  0.00000000E+00  0.00000000E+00  0.00000000E+00
  0.00000000E+00  0.00000000E+00  0.00000000E+00
  0.00000000E+00  0.00000000E+00  0.00000000E+00
  0.00000000E+00  0.00000000E+00  0.00000000E+00
  0.00000000E+00  0.00000000E+00  0.00000000E+00
  0.00000000E+00  0.00000000E+00  0.00000000E+00
  0.00000000E+00  0.00000000E+00  0.00000000E+00
  0.00000000E+00  0.00000000E+00  0.00000000E+00
  0.00000000E+00  0.00000000E+00  0.00000000E+00
  0.00000000E+00  0.00000000E+00  0.00000000E+00
  0.00000000E+00  0.00000000E+00  0.00000000E+00
  0.00000000E+00  0.00000000E+00  0.00000000E+00
  0.00000000E+00  0.00000000E+00  0.00000000E+00
  0.00000000E+00  0.00000000E+00  0.00000000E+00
  0.00000000E+00  0.00000000E+00  0.00000000E+00
  0.00000000E+00  0.00000000E+00  0.00000000E+00
  0.00000000E+00  0.00000000E+00  0.00000000E+00
  0.00000000E+00  0.00000000E+00  0.00000000E+00
  0.00000000E+00  0.00000000E+00  0.00000000E+00
  0.00000000E+00  0.00000000E+00  0.00000000E+00
  0.00000000E+00  0.00000000E+00  0.00000000E+00
  0.00000000E+00  0.00000000E+00  0.00000000E+00
  0.00000000E+00  0.00000000E+00  0.00000000E+00
  0.00000000E+00  0.00000000E+00  0.00000000E+00
  0.00000000E+00  0.00000000E+00  0.00000000E+00
  0.00000000E+00  0.00000000E+00  0.00000000E+00
  0.00000000E+00  0.00000000E+00  0.00000000E+00
  0.00000000E+00  0.00000000E+00  0.00000000E+00
  0.00000000E+00  0.00000000E+00  0.00000000E+00
  0.00000000E+00  0.00000000E+00  0.00000000E+00
  0.00000000E+00  0.00000000E+00  0.00000000E+00
  0.00000000E+00  0.00000000E+00  0.00000000E+00
  0.00000000E+00  0.00000000E+00  0.00000000E+00
  0.00000000E+00  0.00000000E+00  0.00000000E+00
  0.00000000E+00  0.00000000E+00  0.00000000E+00
  0.00000000E+00  0.00000000E+00  0.00000000E+00
  0.00000000E+00  0.00000000E+00  0.00000000E+00
  0.00000000E+00  0.00000000E+00  0.00000000E+00
  0.00000000E+00  0.00000000E+00  0.00000000E+00
  0.00000000E+00  0.00000000E+00  0.00000000E+00
  0.00000000E+00  0.00000000E+00  0.00000000E+00
  0.00000000E+00  0.00000000E+00  0.00000000E+00
  0.00000000E+00  0.00000000E+00  0.00000000E+00
  0.00000000E+00  0.00000000E+00  0.00000000E+00
  0.00000000E+00  0.00000000E+00  0.00000000E+00
  0.00000000E+00  0.00000000E+00  0.00000000E+00
  0.00000000E+00  0.00000000E+00  0.00000000E+00
  0.00000000E+00  0.00000000E+00  0.00000000E+00
  0.00000000E+00  0.00000000E+00  0.00000000E+00
  0.00000000E+00  0.00000000E+00  0.00000000E+00
  0.00000000E+00  0.00000000E+00  0.00000000E+00
  0.00000000E+00  0.00000000E+00  0.00000000E+00
  0.00000000E+00  0.00000000E+00  0.00000000E+00
  0.00000000E+00  0.00000000E+00  0.00000000E+00
  0.00000000E+00  0.00000000E+00  0.00000000E+00
  0.00000000E+00  0.00000000E+00  0.00000000E+00
  0.00000000E+00  0.00000000E+00  0.00000000E+00
  0.00000000E+00  0.00000000E+00  0.00000000E+00
  0.00000000E+00  0.00000000E+00  0.00000000E+00
  0.00000000E+00  0.00000000E+00  0.00000000E+00
  0.00000000E+00  0.00000000E+00  0.00000000E+00
  0.00000000E+00  0.00000000E+00  0.00000000E+00
  0.00000000E+00  0.00000000E+00  0.00000000E+00
  0.00000000E+00  0.00000000E+00  0.00000000E+00
  0.00000000E+00  0.00000000E+00  0.00000000E+00
  0.00000000E+00  0.00000000E+00  0.00000000E+00
  0.00000000E+00  0.00000000E+00  0.00000000E+00
  0.00000000E+00  0.00000000E+00  0.00000000E+00
  0.00000000E+00  0.00000000E+00  0.00000000E+00
  0.00000000E+00  0.00000000E+00  0.00000000E+00
  0.00000000E+00  0.00000000E+00  0.00000000E+00
  0.00000000E+00  0.00000000E+00  0.00000000E+00
  0.00000000E+00  0.00000000E+00  0.00000000E+00
  0.00000000E+00  0.00000000E+00  0.00000000E+00
  0.00000000E+00  0.00000000E+00  0.00000000E+00
  0.00000000E+00  0.00000000E+00  0.00000000E+00
  0.00000000E+00  0.00000000E+00  0.00000000E+00
  0.00000000E+00  0.00000000E+00  0.00000000E+00
  0.00000000E+00  0.00000000E+00  0.00000000E+00
  0.00000000E+00  0.00000000E+00  0.00000000E+00
  0.00000000E+00  0.00000000E+00  0.00000000E+00
  0.00000000E+00  0.00000000E+00  0.00000000E+00
  0.00000000E+00  0.00000000E+00  0.00000000E+00
  0.00000000E+00  0.00000000E+00  0.00000000E+00
  0.00000000E+00  0.00000000E+00  0.00000000E+00
  0.00000000E+00  0.00000000E+00  0.00000000E+00
  0.00000000E+00  0.00000000E+00  0.00000000E+00
  0.00000000E+00  0.00000000E+00  0.00000000E+00
  0.00000000E+00  0.00000000E+00  0.00000000E+00
  0.00000000E+00  0.00000000E+00  0.00000000E+00
  0.00000000E+00  0.00000000E+00  0.00000000E+00
