 O  C 
 1.0000000000000000
    12.4401522270000005    0.0000000000000000    0.0000000000000000
     0.0000000000000000   11.7286879982999999    0.0000000000000000
     0.0000000000000000    0.0000000000000000   20.0000000000000000
 O   C  
   2   1
Cartesian
 -1.1970000000000001  0.0000000000000000  0.0000000000000000
  1.1970000000000001  0.0000000000000000  0.0000000000000000
  0.0000000000000000  0.0000000000000000  0.0000000000000000
