Ru  H  C                                
   1.00000000000000     
    18.7899500611000008    0.0000000000000000    0.0000000000000000
     9.3949750305999995   16.2725740887999990    0.0000000000000000
     0.0000000000000000    0.0000000000000000   20.0000000000000000
   Ru   H    C 
   192    18    16
Selective dynamics
Direct
  0.0000000000019114  0.0833333333312822  0.0000000000000000   F   F   F
  0.1666666666657761  0.0000000000000000  0.0000000000000000   F   F   F
  0.0833333333309767  0.1666666666687178  0.0000000000000000   F   F   F
  0.2500000000032401  0.0833333333312822  0.0000000000000000   F   F   F
  0.4166666666671119  0.0000000000000000  0.0000000000000000   F   F   F
  0.3333333333323125  0.1666666666687178  0.0000000000000000   F   F   F
  0.9999999999992468  0.3333333333312822  0.0000000000000000   F   F   F
  0.1666666666684407  0.2500000000000000  0.0000000000000000   F   F   F
  0.0833333333336412  0.4166666666687178  0.0000000000000000   F   F   F
  0.2500000000005826  0.3333333333312822  0.0000000000000000   F   F   F
  0.4166666666697694  0.2500000000000000  0.0000000000000000   F   F   F
  0.3333333333349700  0.4166666666687178  0.0000000000000000   F   F   F
  0.0000000000000000  0.0000000000000000  0.1071978058550016   F   F   F
  0.0833333333321420  0.0833333333312822  0.1071978058550016   F   F   F
  0.1666666666665293  0.1666666666687178  0.1071978058550016   F   F   F
  0.2500000000013287  0.0000000000000000  0.1071978058550016   F   F   F
  0.3333333333334707  0.0833333333312822  0.1071978058550016   F   F   F
  0.4166666666678580  0.1666666666687178  0.1071978058550016   F   F   F
  0.9999999999973355  0.2500000000000000  0.1071978058550016   F   F   F
  0.0833333333347994  0.3333333333312822  0.1071978058550016   F   F   F
  0.1666666666638719  0.4166666666687178  0.1071978058550016   F   F   F
  0.2499999999986713  0.2500000000000000  0.1071978058550016   F   F   F
  0.3333333333361281  0.3333333333312822  0.1071978058550016   F   F   F
  0.4166666666652006  0.4166666666687178  0.1071978058550016   F   F   F
  0.0000636517705336  0.0833773463129808  0.2133994495696401   T   T   T
  0.1663737847165884  0.0002365555137869  0.2134172765095877   T   T   T
  0.0833171633148056  0.1667474138161969  0.2135998843760381   T   T   T
  0.2495919549706514  0.0836644143499668  0.2134411513359204   T   T   T
  0.4161558878644152  0.0000152012625773  0.2135026217895644   T   T   T
  0.3335261723542827  0.1662898378326057  0.2135893142415432   T   T   T
  0.0001275322459261  0.3334094883734058  0.2135708182353666   T   T   T
  0.1667063523516744  0.2500421508451132  0.2136194013532169   T   T   T
  0.0834669533180435  0.4164962030857215  0.2134473689569693   T   T   T
  0.2499618185653439  0.3333898082998627  0.2139695680729845   T   T   T
  0.4165183798275907  0.2500380096052633  0.2134931064766088   T   T   T
  0.3335133378508324  0.4163582588357429  0.2136122872051485   T   T   T
  0.0001303958993198 -0.0002158880368869  0.3164184568431855   T   T   T
  0.0834286896254062  0.0833753381475697  0.3166054217678043   T   T   T
  0.1661696586062144  0.1667254748102311  0.3165794851853715   T   T   T
  0.2494987877409328  0.0000799245454568  0.3165371965155271   T   T   T
  0.3331919395380474  0.0832205587062019  0.3164170405881196   T   T   T
  0.4159416016609824  0.1650449215594025  0.3160510770473277   T   T   T
  0.0004924872054863  0.2498946263820364  0.3166495881442687   T   T   T
  0.0838749202172509  0.3330801791483249  0.3166043987268792   T   T   T
  0.1665352574170856  0.4167777017269568  0.3164150775747204   T   T   T
  0.2501673068053841  0.2499619285898934  0.3165229479365460   T   T   T
  0.3304353882295457  0.3334899544901468  0.3171817615703414   T   T   T
  0.4145285647075484  0.4183813957397874  0.3196114107509122   T   T   T
  0.0000000000019114  0.5833333333312822  0.0000000000000000   F   F   F
  0.1666666666657761  0.5000000000000000  0.0000000000000000   F   F   F
  0.0833333333309767  0.6666666666687178  0.0000000000000000   F   F   F
  0.2500000000032401  0.5833333333312822  0.0000000000000000   F   F   F
  0.4166666666671119  0.5000000000000000  0.0000000000000000   F   F   F
  0.3333333333323054  0.6666666666687178  0.0000000000000000   F   F   F
  0.9999999999992468  0.8333333333312822  0.0000000000000000   F   F   F
  0.1666666666684407  0.7500000000000000  0.0000000000000000   F   F   F
  0.0833333333336412  0.9166666666687178  0.0000000000000000   F   F   F
  0.2500000000005826  0.8333333333312822  0.0000000000000000   F   F   F
  0.4166666666644474  0.7500000000000000  0.0000000000000000   F   F   F
  0.3333333333296480  0.9166666666687178  0.0000000000000000   F   F   F
  0.0000000000000000  0.5000000000000000  0.1071978058550016   F   F   F
  0.0833333333321420  0.5833333333312822  0.1071978058550016   F   F   F
  0.1666666666665293  0.6666666666687178  0.1071978058550016   F   F   F
  0.2500000000013287  0.5000000000000000  0.1071978058550016   F   F   F
  0.3333333333334707  0.5833333333312822  0.1071978058550016   F   F   F
  0.4166666666678580  0.6666666666687178  0.1071978058550016   F   F   F
  0.9999999999973355  0.7500000000000000  0.1071978058550016   F   F   F
  0.0833333333347994  0.8333333333312822  0.1071978058550016   F   F   F
  0.1666666666638719  0.9166666666687178  0.1071978058550016   F   F   F
  0.2499999999986713  0.7500000000000000  0.1071978058550016   F   F   F
  0.3333333333361281  0.8333333333312822  0.1071978058550016   F   F   F
  0.4166666666652006  0.9166666666687178  0.1071978058550016   F   F   F
  0.0004120031083073  0.5833390655480132  0.2134550556068842   T   T   T
  0.1663289522669528  0.5004950786859143  0.2136243040811874   T   T   T
  0.0829272120294146  0.6670123983225459  0.2134655093427527   T   T   T
  0.2499615182001934  0.5833971926985124  0.2132026173298482   T   T   T
  0.4164299691977656  0.4995815565440934  0.2136019196332831   T   T   T
  0.3329821654485777  0.6669984123953975  0.2139997273221637   T   T   T
 -0.0000872923827238  0.8334674689207325  0.2134958763280976   T   T   T
  0.1664122012106342  0.7503837274422984  0.2134744020318315   T   T   T
  0.0833440183403440  0.9166305674949817  0.2134275295062943   T   T   T
  0.2495949937774684  0.8337610126384964  0.2136020559460537   T   T   T
  0.4166590384816831  0.7498864121747991  0.2134793348797184   T   T   T
  0.3332790490537464  0.9168206608758787  0.2129308483735395   T   T   T
 -0.0000128687722299  0.5001405316679137  0.3163306039370607   T   T   T
  0.0830884019989208  0.5837784706826469  0.3165619021865238   T   T   T
  0.1661944711080025  0.6672302772491475  0.3164164231670372   T   T   T
  0.2470427981583785  0.5020842519724021  0.3162095802136231   T   T   T
  0.3301904071651204  0.5852450560186080  0.3155942291599206   T   T   T
  0.4144356970956365  0.6680160657878186  0.3158085697327485   T   T   T
 -0.0002144849972344  0.7503759775521239  0.3167563348927599   T   T   T
  0.0827959609540583  0.8336354465091802  0.3165450127931527   T   T   T
  0.1661931811366484  0.9171749271730768  0.3164270617800691   T   T   T
  0.2492700785687520  0.7506483088744239  0.3162995127877977   T   T   T
  0.3310927294747990  0.8354001788317282  0.3159656315159073   T   T   T
  0.4142374255461210  0.9191619637116688  0.3160029518036873   T   T   T
  0.5000000000045688  0.0833333333312822  0.0000000000000000   F   F   F
  0.6666666666684407  0.0000000000000000  0.0000000000000000   F   F   F
  0.5833333333336412  0.1666666666687178  0.0000000000000000   F   F   F
  0.7500000000005826  0.0833333333312822  0.0000000000000000   F   F   F
  0.9166666666697694  0.0000000000000000  0.0000000000000000   F   F   F
  0.8333333333349700  0.1666666666687178  0.0000000000000000   F   F   F
  0.5000000000019114  0.3333333333312822  0.0000000000000000   F   F   F
  0.6666666666657761  0.2500000000000000  0.0000000000000000   F   F   F
  0.5833333333309767  0.4166666666687178  0.0000000000000000   F   F   F
  0.7500000000032401  0.3333333333312822  0.0000000000000000   F   F   F
  0.9166666666671119  0.2500000000000000  0.0000000000000000   F   F   F
  0.8333333333323054  0.4166666666687178  0.0000000000000000   F   F   F
  0.5000000000026574  0.0000000000000000  0.1071978058550016   F   F   F
  0.5833333333347994  0.0833333333312822  0.1071978058550016   F   F   F
  0.6666666666691938  0.1666666666687178  0.1071978058550016   F   F   F
  0.7500000000039933  0.0000000000000000  0.1071978058550016   F   F   F
  0.8333333333361281  0.0833333333312822  0.1071978058550016   F   F   F
  0.9166666666652006  0.1666666666687178  0.1071978058550016   F   F   F
  0.5000000000000000  0.2500000000000000  0.1071978058550016   F   F   F
  0.5833333333374640  0.3333333333312822  0.1071978058550016   F   F   F
  0.6666666666665293  0.4166666666687178  0.1071978058550016   F   F   F
  0.7500000000013287  0.2500000000000000  0.1071978058550016   F   F   F
  0.8333333333334707  0.3333333333312822  0.1071978058550016   F   F   F
  0.9166666666678580  0.4166666666687178  0.1071978058550016   F   F   F
  0.5001275753580241  0.0833688960079425  0.2129789779761411   T   T   T
  0.6665767067316009 -0.0004003985175240  0.2135074442390174   T   T   T
  0.5837084641158639  0.1662797877344506  0.2134241991566931   T   T   T
  0.7502283126702907  0.0831043255719047  0.2139787522227261   T   T   T
  0.9165990882206441  0.0000017718003178  0.2134939481674229   T   T   T
  0.8335863433150047  0.1667591712620392  0.2135242256286763   T   T   T
  0.4997436775441662  0.3332739264414950  0.2124516990950623   T   T   T
  0.6667096056253395  0.2496031124660670  0.2136609656526506   T   T   T
  0.5836732130991977  0.4166786954188984  0.2129436292587250   T   T   T
  0.7498963535750812  0.3334113558211689  0.2133240515195940   T   T   T
  0.9170798537440287  0.2498384541830476  0.2135262984926058   T   T   T
  0.8338163071387986  0.4165738658147679  0.2140634306704777   T   T   T
  0.4995075303462024  0.0002274215014809  0.3162381794460271   T   T   T
  0.5839147238894035  0.0802811333663405  0.3158905732108278   T   T   T
  0.6693685404448407  0.1633363125007755  0.3168839527159642   T   T   T
  0.7500036650288413 -0.0002884304173348  0.3164171265922860   T   T   T
  0.8335901552690924  0.0830709425870522  0.3163421268537491   T   T   T
  0.9172035092467089  0.1661802135904397  0.3164226777953287   T   T   T
  0.5009034475229803  0.2469861067661104  0.3187504903223443   T   T   T
  0.5849263872100965  0.3333091480304135  0.3180254353311511   T   T   T
  0.6701695749111735  0.4144080976405276  0.3156595775709507   T   T   T
  0.7523650118362768  0.2492165372361565  0.3160679004964304   T   T   T
  0.8337850514404052  0.3329241092599835  0.3163033767897022   T   T   T
  0.9172010956702662  0.4166587917982238  0.3164832362852709   T   T   T
  0.4999999999992468  0.5833333333312822  0.0000000000000000   F   F   F
  0.6666666666684407  0.5000000000000000  0.0000000000000000   F   F   F
  0.5833333333336412  0.6666666666687178  0.0000000000000000   F   F   F
  0.7500000000005826  0.5833333333312822  0.0000000000000000   F   F   F
  0.9166666666697694  0.5000000000000000  0.0000000000000000   F   F   F
  0.8333333333349700  0.6666666666687178  0.0000000000000000   F   F   F
  0.5000000000019114  0.8333333333312822  0.0000000000000000   F   F   F
  0.6666666666657761  0.7500000000000000  0.0000000000000000   F   F   F
  0.5833333333309767  0.9166666666687178  0.0000000000000000   F   F   F
  0.7500000000032401  0.8333333333312822  0.0000000000000000   F   F   F
  0.9166666666671119  0.7500000000000000  0.0000000000000000   F   F   F
  0.8333333333323054  0.9166666666687178  0.0000000000000000   F   F   F
  0.5000000000026574  0.5000000000000000  0.1071978058550016   F   F   F
  0.5833333333347994  0.5833333333312822  0.1071978058550016   F   F   F
  0.6666666666638719  0.6666666666687178  0.1071978058550016   F   F   F
  0.7499999999986713  0.5000000000000000  0.1071978058550016   F   F   F
  0.8333333333361281  0.5833333333312822  0.1071978058550016   F   F   F
  0.9166666666652006  0.6666666666687178  0.1071978058550016   F   F   F
  0.5000000000000000  0.7500000000000000  0.1071978058550016   F   F   F
  0.5833333333321420  0.8333333333312822  0.1071978058550016   F   F   F
  0.6666666666665293  0.9166666666687178  0.1071978058550016   F   F   F
  0.7500000000013287  0.7500000000000000  0.1071978058550016   F   F   F
  0.8333333333334707  0.8333333333312822  0.1071978058550016   F   F   F
  0.9166666666678580  0.9166666666687178  0.1071978058550016   F   F   F
  0.4996065173603736  0.5841603299291126  0.2132108706465693   T   T   T
  0.6664975936316768  0.5005290416684273  0.2141945493799236   T   T   T
  0.5831946495412457  0.6663072483008076  0.2134287222653580   T   T   T
  0.7503538984062408  0.5829741111198992  0.2129882442405512   T   T   T
  0.9171630123876713  0.4999946300123163  0.2135265965899207   T   T   T
  0.8333707343566903  0.6665528878159641  0.2129035012616557   T   T   T
  0.5000806150721371  0.8333372672782170  0.2131449320824618   T   T   T
  0.6665867044371279  0.7500268123441576  0.2132390722231908   T   T   T
  0.5833567446726043  0.9164297016531867  0.2138430341044222   T   T   T
  0.7503873521147075  0.8328831907185998  0.2136960340772173   T   T   T
  0.9168170710052499  0.7500802296076849  0.2135769371241295   T   T   T
  0.8333142853124784  0.9166011711362092  0.2135064153880058   T   T   T
  0.5003185417521149  0.5001637561136194  0.3143130201778091   T   T   T
  0.5817864709386350  0.5818806680988158  0.3221475526708883   T   T   T
  0.6688770150926713  0.6656811740483306  0.3191839168817706   T   T   T
  0.7530730310692598  0.4979703020671972  0.3163508311211461   T   T   T
  0.8363650358153445  0.5828859864261233  0.3158568967526710   T   T   T
  0.9165008641007113  0.6668257003212391  0.3164939033906218   T   T   T
  0.4989717753731437  0.7515526073629512  0.3201856688125159   T   T   T
  0.5824416442967280  0.8359209728853728  0.3161052111296722   T   T   T
  0.6668409441811196  0.9160785609403763  0.3162835962393160   T   T   T
  0.7515841501309963  0.7499899559608941  0.3160952384365505   T   T   T
  0.8338529639574866  0.8327272860998958  0.3164587158534981   T   T   T
  0.9167740782394583  0.9167542923172929  0.3164782863396219   T   T   T
  0.4822818066291969  0.2083052357207760  0.4462113536405778   T   T   T
  0.3585009082767153  0.3471686726736362  0.4357329416010100   T   T   T
  0.6227973438388288  0.1902574662335203  0.4350646906286642   T   T   T
  0.6374734004777206  0.3126020771893629  0.4465506317611809   T   T   T
  0.3755589657530638  0.4683131190994905  0.4486201340772200   T   T   T
  0.5713748141787834  0.4691323182911574  0.4286152608828375   T   T   T
  0.5519551220685557  0.4472006307156914  0.5099058125911051   T   T   T
  0.4085900955657811  0.5540974572895636  0.5063188933715193   T   T   T
  0.4122661813891426  0.5728862756106553  0.4202163151331695   T   T   T
  0.3473467265784334  0.7286568421435504  0.4554462781839816   T   T   T
  0.3902867723721242  0.7478582617616191  0.5284231909717872   T   T   T
  0.3472000488931260  0.6828939411695891  0.5331465940633812   T   T   T
  0.5031069478112549  0.6056272931271596  0.5312349697619857   T   T   T
  0.6281471548490298  0.5234447418931183  0.4536402877187040   T   T   T
  0.7309235470545454  0.5617485972457170  0.4387747181510327   T   T   T
  0.6890556164596356  0.7101068703222069  0.4454100412498087   T   T   T
  0.5410419914992083  0.8165559815069383  0.4376145402528339   T   T   T
  0.4372058645394319  0.7763588306052382  0.4461105697277499   T   T   T
  0.4893793594079409  0.2581743654798980  0.4257082984889454   T   T   T
  0.5695938617185914  0.2498290948787011  0.4213317958167684   T   T   T
  0.5796138752230511  0.3215617911906354  0.4262143893716655   T   T   T
  0.5083019972731670  0.4020148504261586  0.4320644269115525   T   T   T
  0.4271372771649628  0.4120368336460029  0.4288230928473244   T   T   T
  0.4184002173274709  0.3401215930005409  0.4221920001697367   T   T   T
  0.5233161443194170  0.4684689430528652  0.4600844403686619   T   T   T
  0.4493533779423719  0.5547871571966957  0.4670042035132240   T   T   T
  0.4664560683341050  0.6247620959314200  0.4845060299274352   T   T   T
  0.3833388783559246  0.7008338563900675  0.5013573866514055   T   T   T
  0.5204202522443837  0.6435076553890420  0.4372187825851298   T   T   T
  0.6061462627419292  0.5831753491717526  0.4301349047995609   T   T   T
  0.6683793150951729  0.6076343416900915  0.4239020806835844   T   T   T
  0.6461324767538649  0.6923850883434339  0.4254990728870663   T   T   T
  0.5590939845505903  0.7535640479595863  0.4229189097330122   T   T   T
  0.4973260267730434  0.7298127955740801  0.4281801611623651   T   T   T
 
  0.00000000E+00  0.00000000E+00  0.00000000E+00
  0.00000000E+00  0.00000000E+00  0.00000000E+00
  0.00000000E+00  0.00000000E+00  0.00000000E+00
  0.00000000E+00  0.00000000E+00  0.00000000E+00
  0.00000000E+00  0.00000000E+00  0.00000000E+00
  0.00000000E+00  0.00000000E+00  0.00000000E+00
  0.00000000E+00  0.00000000E+00  0.00000000E+00
  0.00000000E+00  0.00000000E+00  0.00000000E+00
  0.00000000E+00  0.00000000E+00  0.00000000E+00
  0.00000000E+00  0.00000000E+00  0.00000000E+00
  0.00000000E+00  0.00000000E+00  0.00000000E+00
  0.00000000E+00  0.00000000E+00  0.00000000E+00
  0.00000000E+00  0.00000000E+00  0.00000000E+00
  0.00000000E+00  0.00000000E+00  0.00000000E+00
  0.00000000E+00  0.00000000E+00  0.00000000E+00
  0.00000000E+00  0.00000000E+00  0.00000000E+00
  0.00000000E+00  0.00000000E+00  0.00000000E+00
  0.00000000E+00  0.00000000E+00  0.00000000E+00
  0.00000000E+00  0.00000000E+00  0.00000000E+00
  0.00000000E+00  0.00000000E+00  0.00000000E+00
  0.00000000E+00  0.00000000E+00  0.00000000E+00
  0.00000000E+00  0.00000000E+00  0.00000000E+00
  0.00000000E+00  0.00000000E+00  0.00000000E+00
  0.00000000E+00  0.00000000E+00  0.00000000E+00
  0.00000000E+00  0.00000000E+00  0.00000000E+00
  0.00000000E+00  0.00000000E+00  0.00000000E+00
  0.00000000E+00  0.00000000E+00  0.00000000E+00
  0.00000000E+00  0.00000000E+00  0.00000000E+00
  0.00000000E+00  0.00000000E+00  0.00000000E+00
  0.00000000E+00  0.00000000E+00  0.00000000E+00
  0.00000000E+00  0.00000000E+00  0.00000000E+00
  0.00000000E+00  0.00000000E+00  0.00000000E+00
  0.00000000E+00  0.00000000E+00  0.00000000E+00
  0.00000000E+00  0.00000000E+00  0.00000000E+00
  0.00000000E+00  0.00000000E+00  0.00000000E+00
  0.00000000E+00  0.00000000E+00  0.00000000E+00
  0.00000000E+00  0.00000000E+00  0.00000000E+00
  0.00000000E+00  0.00000000E+00  0.00000000E+00
  0.00000000E+00  0.00000000E+00  0.00000000E+00
  0.00000000E+00  0.00000000E+00  0.00000000E+00
  0.00000000E+00  0.00000000E+00  0.00000000E+00
  0.00000000E+00  0.00000000E+00  0.00000000E+00
  0.00000000E+00  0.00000000E+00  0.00000000E+00
  0.00000000E+00  0.00000000E+00  0.00000000E+00
  0.00000000E+00  0.00000000E+00  0.00000000E+00
  0.00000000E+00  0.00000000E+00  0.00000000E+00
  0.00000000E+00  0.00000000E+00  0.00000000E+00
  0.00000000E+00  0.00000000E+00  0.00000000E+00
  0.00000000E+00  0.00000000E+00  0.00000000E+00
  0.00000000E+00  0.00000000E+00  0.00000000E+00
  0.00000000E+00  0.00000000E+00  0.00000000E+00
  0.00000000E+00  0.00000000E+00  0.00000000E+00
  0.00000000E+00  0.00000000E+00  0.00000000E+00
  0.00000000E+00  0.00000000E+00  0.00000000E+00
  0.00000000E+00  0.00000000E+00  0.00000000E+00
  0.00000000E+00  0.00000000E+00  0.00000000E+00
  0.00000000E+00  0.00000000E+00  0.00000000E+00
  0.00000000E+00  0.00000000E+00  0.00000000E+00
  0.00000000E+00  0.00000000E+00  0.00000000E+00
  0.00000000E+00  0.00000000E+00  0.00000000E+00
  0.00000000E+00  0.00000000E+00  0.00000000E+00
  0.00000000E+00  0.00000000E+00  0.00000000E+00
  0.00000000E+00  0.00000000E+00  0.00000000E+00
  0.00000000E+00  0.00000000E+00  0.00000000E+00
  0.00000000E+00  0.00000000E+00  0.00000000E+00
  0.00000000E+00  0.00000000E+00  0.00000000E+00
  0.00000000E+00  0.00000000E+00  0.00000000E+00
  0.00000000E+00  0.00000000E+00  0.00000000E+00
  0.00000000E+00  0.00000000E+00  0.00000000E+00
  0.00000000E+00  0.00000000E+00  0.00000000E+00
  0.00000000E+00  0.00000000E+00  0.00000000E+00
  0.00000000E+00  0.00000000E+00  0.00000000E+00
  0.00000000E+00  0.00000000E+00  0.00000000E+00
  0.00000000E+00  0.00000000E+00  0.00000000E+00
  0.00000000E+00  0.00000000E+00  0.00000000E+00
  0.00000000E+00  0.00000000E+00  0.00000000E+00
  0.00000000E+00  0.00000000E+00  0.00000000E+00
  0.00000000E+00  0.00000000E+00  0.00000000E+00
  0.00000000E+00  0.00000000E+00  0.00000000E+00
  0.00000000E+00  0.00000000E+00  0.00000000E+00
  0.00000000E+00  0.00000000E+00  0.00000000E+00
  0.00000000E+00  0.00000000E+00  0.00000000E+00
  0.00000000E+00  0.00000000E+00  0.00000000E+00
  0.00000000E+00  0.00000000E+00  0.00000000E+00
  0.00000000E+00  0.00000000E+00  0.00000000E+00
  0.00000000E+00  0.00000000E+00  0.00000000E+00
  0.00000000E+00  0.00000000E+00  0.00000000E+00
  0.00000000E+00  0.00000000E+00  0.00000000E+00
  0.00000000E+00  0.00000000E+00  0.00000000E+00
  0.00000000E+00  0.00000000E+00  0.00000000E+00
  0.00000000E+00  0.00000000E+00  0.00000000E+00
  0.00000000E+00  0.00000000E+00  0.00000000E+00
  0.00000000E+00  0.00000000E+00  0.00000000E+00
  0.00000000E+00  0.00000000E+00  0.00000000E+00
  0.00000000E+00  0.00000000E+00  0.00000000E+00
  0.00000000E+00  0.00000000E+00  0.00000000E+00
  0.00000000E+00  0.00000000E+00  0.00000000E+00
  0.00000000E+00  0.00000000E+00  0.00000000E+00
  0.00000000E+00  0.00000000E+00  0.00000000E+00
  0.00000000E+00  0.00000000E+00  0.00000000E+00
  0.00000000E+00  0.00000000E+00  0.00000000E+00
  0.00000000E+00  0.00000000E+00  0.00000000E+00
  0.00000000E+00  0.00000000E+00  0.00000000E+00
  0.00000000E+00  0.00000000E+00  0.00000000E+00
  0.00000000E+00  0.00000000E+00  0.00000000E+00
  0.00000000E+00  0.00000000E+00  0.00000000E+00
  0.00000000E+00  0.00000000E+00  0.00000000E+00
  0.00000000E+00  0.00000000E+00  0.00000000E+00
  0.00000000E+00  0.00000000E+00  0.00000000E+00
  0.00000000E+00  0.00000000E+00  0.00000000E+00
  0.00000000E+00  0.00000000E+00  0.00000000E+00
  0.00000000E+00  0.00000000E+00  0.00000000E+00
  0.00000000E+00  0.00000000E+00  0.00000000E+00
  0.00000000E+00  0.00000000E+00  0.00000000E+00
  0.00000000E+00  0.00000000E+00  0.00000000E+00
  0.00000000E+00  0.00000000E+00  0.00000000E+00
  0.00000000E+00  0.00000000E+00  0.00000000E+00
  0.00000000E+00  0.00000000E+00  0.00000000E+00
  0.00000000E+00  0.00000000E+00  0.00000000E+00
  0.00000000E+00  0.00000000E+00  0.00000000E+00
  0.00000000E+00  0.00000000E+00  0.00000000E+00
  0.00000000E+00  0.00000000E+00  0.00000000E+00
  0.00000000E+00  0.00000000E+00  0.00000000E+00
  0.00000000E+00  0.00000000E+00  0.00000000E+00
  0.00000000E+00  0.00000000E+00  0.00000000E+00
  0.00000000E+00  0.00000000E+00  0.00000000E+00
  0.00000000E+00  0.00000000E+00  0.00000000E+00
  0.00000000E+00  0.00000000E+00  0.00000000E+00
  0.00000000E+00  0.00000000E+00  0.00000000E+00
  0.00000000E+00  0.00000000E+00  0.00000000E+00
  0.00000000E+00  0.00000000E+00  0.00000000E+00
  0.00000000E+00  0.00000000E+00  0.00000000E+00
  0.00000000E+00  0.00000000E+00  0.00000000E+00
  0.00000000E+00  0.00000000E+00  0.00000000E+00
  0.00000000E+00  0.00000000E+00  0.00000000E+00
  0.00000000E+00  0.00000000E+00  0.00000000E+00
  0.00000000E+00  0.00000000E+00  0.00000000E+00
  0.00000000E+00  0.00000000E+00  0.00000000E+00
  0.00000000E+00  0.00000000E+00  0.00000000E+00
  0.00000000E+00  0.00000000E+00  0.00000000E+00
  0.00000000E+00  0.00000000E+00  0.00000000E+00
  0.00000000E+00  0.00000000E+00  0.00000000E+00
  0.00000000E+00  0.00000000E+00  0.00000000E+00
  0.00000000E+00  0.00000000E+00  0.00000000E+00
  0.00000000E+00  0.00000000E+00  0.00000000E+00
  0.00000000E+00  0.00000000E+00  0.00000000E+00
  0.00000000E+00  0.00000000E+00  0.00000000E+00
  0.00000000E+00  0.00000000E+00  0.00000000E+00
  0.00000000E+00  0.00000000E+00  0.00000000E+00
  0.00000000E+00  0.00000000E+00  0.00000000E+00
  0.00000000E+00  0.00000000E+00  0.00000000E+00
  0.00000000E+00  0.00000000E+00  0.00000000E+00
  0.00000000E+00  0.00000000E+00  0.00000000E+00
  0.00000000E+00  0.00000000E+00  0.00000000E+00
  0.00000000E+00  0.00000000E+00  0.00000000E+00
  0.00000000E+00  0.00000000E+00  0.00000000E+00
  0.00000000E+00  0.00000000E+00  0.00000000E+00
  0.00000000E+00  0.00000000E+00  0.00000000E+00
  0.00000000E+00  0.00000000E+00  0.00000000E+00
  0.00000000E+00  0.00000000E+00  0.00000000E+00
  0.00000000E+00  0.00000000E+00  0.00000000E+00
  0.00000000E+00  0.00000000E+00  0.00000000E+00
  0.00000000E+00  0.00000000E+00  0.00000000E+00
  0.00000000E+00  0.00000000E+00  0.00000000E+00
  0.00000000E+00  0.00000000E+00  0.00000000E+00
  0.00000000E+00  0.00000000E+00  0.00000000E+00
  0.00000000E+00  0.00000000E+00  0.00000000E+00
  0.00000000E+00  0.00000000E+00  0.00000000E+00
  0.00000000E+00  0.00000000E+00  0.00000000E+00
  0.00000000E+00  0.00000000E+00  0.00000000E+00
  0.00000000E+00  0.00000000E+00  0.00000000E+00
  0.00000000E+00  0.00000000E+00  0.00000000E+00
  0.00000000E+00  0.00000000E+00  0.00000000E+00
  0.00000000E+00  0.00000000E+00  0.00000000E+00
  0.00000000E+00  0.00000000E+00  0.00000000E+00
  0.00000000E+00  0.00000000E+00  0.00000000E+00
  0.00000000E+00  0.00000000E+00  0.00000000E+00
  0.00000000E+00  0.00000000E+00  0.00000000E+00
  0.00000000E+00  0.00000000E+00  0.00000000E+00
  0.00000000E+00  0.00000000E+00  0.00000000E+00
  0.00000000E+00  0.00000000E+00  0.00000000E+00
  0.00000000E+00  0.00000000E+00  0.00000000E+00
  0.00000000E+00  0.00000000E+00  0.00000000E+00
  0.00000000E+00  0.00000000E+00  0.00000000E+00
  0.00000000E+00  0.00000000E+00  0.00000000E+00
  0.00000000E+00  0.00000000E+00  0.00000000E+00
  0.00000000E+00  0.00000000E+00  0.00000000E+00
  0.00000000E+00  0.00000000E+00  0.00000000E+00
  0.00000000E+00  0.00000000E+00  0.00000000E+00
  0.00000000E+00  0.00000000E+00  0.00000000E+00
  0.00000000E+00  0.00000000E+00  0.00000000E+00
  0.00000000E+00  0.00000000E+00  0.00000000E+00
  0.00000000E+00  0.00000000E+00  0.00000000E+00
  0.00000000E+00  0.00000000E+00  0.00000000E+00
  0.00000000E+00  0.00000000E+00  0.00000000E+00
  0.00000000E+00  0.00000000E+00  0.00000000E+00
  0.00000000E+00  0.00000000E+00  0.00000000E+00
  0.00000000E+00  0.00000000E+00  0.00000000E+00
  0.00000000E+00  0.00000000E+00  0.00000000E+00
  0.00000000E+00  0.00000000E+00  0.00000000E+00
  0.00000000E+00  0.00000000E+00  0.00000000E+00
  0.00000000E+00  0.00000000E+00  0.00000000E+00
  0.00000000E+00  0.00000000E+00  0.00000000E+00
  0.00000000E+00  0.00000000E+00  0.00000000E+00
  0.00000000E+00  0.00000000E+00  0.00000000E+00
  0.00000000E+00  0.00000000E+00  0.00000000E+00
  0.00000000E+00  0.00000000E+00  0.00000000E+00
  0.00000000E+00  0.00000000E+00  0.00000000E+00
  0.00000000E+00  0.00000000E+00  0.00000000E+00
  0.00000000E+00  0.00000000E+00  0.00000000E+00
  0.00000000E+00  0.00000000E+00  0.00000000E+00
  0.00000000E+00  0.00000000E+00  0.00000000E+00
  0.00000000E+00  0.00000000E+00  0.00000000E+00
  0.00000000E+00  0.00000000E+00  0.00000000E+00
  0.00000000E+00  0.00000000E+00  0.00000000E+00
  0.00000000E+00  0.00000000E+00  0.00000000E+00
  0.00000000E+00  0.00000000E+00  0.00000000E+00
  0.00000000E+00  0.00000000E+00  0.00000000E+00
  0.00000000E+00  0.00000000E+00  0.00000000E+00
  0.00000000E+00  0.00000000E+00  0.00000000E+00
  0.00000000E+00  0.00000000E+00  0.00000000E+00
  0.00000000E+00  0.00000000E+00  0.00000000E+00
  0.00000000E+00  0.00000000E+00  0.00000000E+00
  0.00000000E+00  0.00000000E+00  0.00000000E+00
  0.00000000E+00  0.00000000E+00  0.00000000E+00
  0.00000000E+00  0.00000000E+00  0.00000000E+00
