Au  O  C  N  H                          
   1.00000000000000     
    20.3604714350000009    0.0000000000000000    0.0000000000000000
    10.1802357175000004   17.6326854956999988    0.0000000000000000
     0.0000000000000000    0.0000000000000000   20.0000000000000000
   Au   O    C    N    H 
   192     2     9     2    12
Selective dynamics
Direct
  0.0000000000000000  0.0000000000000000  0.0000000000000000   F   F   F
  0.0833333333338544  0.0833333333347497  0.0000000000000000   F   F   F
  0.1666666666656269  0.1666666666638292  0.0000000000000000   F   F   F
  0.2499999999975415  0.0000000000000000  0.0000000000000000   F   F   F
  0.3333333333313959  0.0833333333347497  0.0000000000000000   F   F   F
  0.4166666666680854  0.1666666666638292  0.0000000000000000   F   F   F
  0.0000000000019398  0.2499999999985789  0.0000000000000000   F   F   F
  0.0833333333308772  0.3333333333333357  0.0000000000000000   F   F   F
  0.1666666666647316  0.4166666666680854  0.0000000000000000   F   F   F
  0.2499999999994813  0.2499999999985789  0.0000000000000000   F   F   F
  0.3333333333333357  0.3333333333333357  0.0000000000000000   F   F   F
  0.4166666666622731  0.4166666666680854  0.0000000000000000   F   F   F
  0.0833333333325115  0.0000000000000000  0.1199752285000031   F   F   F
  0.0000000000005969  0.1666666666638292  0.1199752285000031   F   F   F
  0.1666666666663659  0.0833333333347497  0.1199752285000031   F   F   F
  0.3333333333349700  0.0000000000000000  0.1199752285000031   F   F   F
  0.2500000000030553  0.1666666666638292  0.1199752285000031   F   F   F
  0.4166666666639145  0.0833333333347497  0.1199752285000031   F   F   F
  0.0833333333344513  0.2499999999985789  0.1199752285000031   F   F   F
  0.9999999999997016  0.4166666666680854  0.1199752285000031   F   F   F
  0.1666666666683057  0.3333333333333357  0.1199752285000031   F   F   F
  0.3333333333319928  0.2499999999985789  0.1199752285000031   F   F   F
  0.2499999999972431  0.4166666666680854  0.1199752285000031   F   F   F
  0.4166666666658472  0.3333333333333357  0.1199752285000031   F   F   F
  0.0000014780931168  0.0833609899184591  0.2380164736370931   T   T   T
  0.1666304788331016  0.0000573034820402  0.2380078847127304   T   T   T
  0.0833623566339928  0.1666405142348133  0.2380201346810734   T   T   T
  0.2499867509346923  0.0833382424750822  0.2380506116632176   T   T   T
  0.4166477426230080  0.0000605986960694  0.2380384909645668   T   T   T
  0.3331508824320160  0.1665698168251128  0.2379095417682011   T   T   T
  0.0000190468300094  0.3333273932499866  0.2380124298196983   T   T   T
  0.1666533497010283  0.2499924397627758  0.2380333957488805   T   T   T
  0.0832158456790588  0.4166859876678980  0.2380403290812773   T   T   T
  0.2497104938819591  0.3333541818921150  0.2380400474202922   T   T   T
  0.4162788497020730  0.2497791312610133  0.2376953575241963   T   T   T
  0.3328854643729954  0.4166244657926617  0.2378230493309755   T   T   T
  0.0000184260658085  0.0000565119804204  0.3584373497973056   T   T   T
  0.0833071656018534  0.0833457126056551  0.3584388919651317   T   T   T
  0.1666859905314958  0.1666523025231834  0.3584508764781917   T   T   T
  0.2499473162441235  0.0000420423075321  0.3584428738364805   T   T   T
  0.3332454491484226  0.0832951519884827  0.3585368425097551   T   T   T
  0.4164787048534708  0.1660518336874285  0.3586091201173932   T   T   T
  0.0000608250472792  0.2499347659003091  0.3583785244464217   T   T   T
  0.0833889186412240  0.3333081005699811  0.3584109039588851   T   T   T
  0.1666812604019921  0.4166869292281378  0.3585534092542753   T   T   T
  0.2500187874510540  0.2499665435895240  0.3586070564158770   T   T   T
  0.3332698696279907  0.3332393968807097  0.3583175136517444   T   T   T
  0.4163757070558027  0.4172993947482123  0.3560897878782612   T   T   T
  0.9999999999989626  0.4999999999971649  0.0000000000000000   F   F   F
  0.0833333333328170  0.5833333333319146  0.0000000000000000   F   F   F
  0.1666666666666643  0.6666666666666643  0.0000000000000000   F   F   F
  0.2500000000014211  0.4999999999971649  0.0000000000000000   F   F   F
  0.3333333333303585  0.5833333333319146  0.0000000000000000   F   F   F
  0.4166666666642129  0.6666666666666643  0.0000000000000000   F   F   F
  0.9999999999980602  0.7500000000014211  0.0000000000000000   F   F   F
  0.0833333333347497  0.8333333333305006  0.0000000000000000   F   F   F
  0.1666666666636942  0.9166666666652503  0.0000000000000000   F   F   F
  0.2499999999956088  0.7500000000014211  0.0000000000000000   F   F   F
  0.3333333333322983  0.8333333333305006  0.0000000000000000   F   F   F
  0.4166666666661456  0.9166666666652503  0.0000000000000000   F   F   F
  0.0833333333363910  0.4999999999971649  0.1199752285000031   F   F   F
  0.0000000000016342  0.6666666666666643  0.1199752285000031   F   F   F
  0.1666666666653285  0.5833333333319146  0.1199752285000031   F   F   F
  0.3333333333339326  0.4999999999971649  0.1199752285000031   F   F   F
  0.2499999999991829  0.6666666666666643  0.1199752285000031   F   F   F
  0.4166666666677870  0.5833333333319146  0.1199752285000031   F   F   F
  0.0833333333305788  0.7500000000014211  0.1199752285000031   F   F   F
  0.9999999999986642  0.9166666666652503  0.1199752285000031   F   F   F
  0.1666666666672683  0.8333333333305006  0.1199752285000031   F   F   F
  0.3333333333330373  0.7500000000014211  0.1199752285000031   F   F   F
  0.2500000000011156  0.9166666666652503  0.1199752285000031   F   F   F
  0.4166666666648098  0.8333333333305006  0.1199752285000031   F   F   F
  0.9999746397428947  0.5833771002145598  0.2380512502060755   T   T   T
  0.1663274110210908  0.4999842997321822  0.2378975433880500   T   T   T
  0.0832184471466525  0.6667233218420595  0.2379760025337691   T   T   T
  0.2496075497617787  0.5836240928919910  0.2375414704395470   T   T   T
  0.4164593388938311  0.5003990059395437  0.2373651921038653   T   T   T
  0.3332887140959252  0.6674571855559565  0.2375168848883697   T   T   T
  0.0000522916782855  0.8333236183023920  0.2380265806497788   T   T   T
  0.1666329679979536  0.7500962414985503  0.2380083877687014   T   T   T
  0.0833352958190030  0.9167000322112238  0.2380210622193896   T   T   T
  0.2498513666382017  0.8336111911964267  0.2379640751538595   T   T   T
  0.4166838646025465  0.7503851784545437  0.2379873785160503   T   T   T
  0.3333171858139916  0.9167642319087342  0.2380184080234881   T   T   T
  0.0000179186466580  0.5000474379348356  0.3584308776379699   T   T   T
  0.0832496782101044  0.5834194124822328  0.3585998613391240   T   T   T
  0.1663788327192761  0.6669795330074834  0.3584349468702743   T   T   T
  0.2493455076944774  0.5006080491989610  0.3578825580837749   T   T   T
  0.3327211712382714  0.5845459183469012  0.3564003009633802   T   T   T
  0.4166206643809271  0.6671452117192982  0.3584740046053702   T   T   T
  0.9999532026234180  0.7500332512896103  0.3583753880042728   T   T   T
  0.0832756522789354  0.8334558830516615  0.3583981977056367   T   T   T
  0.1665997924322707  0.9167940860932754  0.3585006822396470   T   T   T
  0.2497983451493384  0.7505238311330067  0.3584507191434433   T   T   T
  0.3332583068282067  0.8334913660921490  0.3584707233665059   T   T   T
  0.4166386648067860  0.9166993523589335  0.3583478682747658   T   T   T
  0.5000000000000000  0.0000000000000000  0.0000000000000000   F   F   F
  0.5833333333289374  0.0833333333347497  0.0000000000000000   F   F   F
  0.6666666666656269  0.1666666666638292  0.0000000000000000   F   F   F
  0.7499999999975415  0.0000000000000000  0.0000000000000000   F   F   F
  0.8333333333313959  0.0833333333347497  0.0000000000000000   F   F   F
  0.9166666666680854  0.1666666666638292  0.0000000000000000   F   F   F
  0.4999999999970228  0.2499999999985789  0.0000000000000000   F   F   F
  0.5833333333308772  0.3333333333333357  0.0000000000000000   F   F   F
  0.6666666666647316  0.4166666666680854  0.0000000000000000   F   F   F
  0.7499999999994813  0.2499999999985789  0.0000000000000000   F   F   F
  0.8333333333333357  0.3333333333333357  0.0000000000000000   F   F   F
  0.9166666666622731  0.4166666666680854  0.0000000000000000   F   F   F
  0.5833333333325115  0.0000000000000000  0.1199752285000031   F   F   F
  0.5000000000005969  0.1666666666638292  0.1199752285000031   F   F   F
  0.6666666666663659  0.0833333333347497  0.1199752285000031   F   F   F
  0.8333333333300601  0.0000000000000000  0.1199752285000031   F   F   F
  0.7499999999981455  0.1666666666638292  0.1199752285000031   F   F   F
  0.9166666666639145  0.0833333333347497  0.1199752285000031   F   F   F
  0.5833333333344513  0.2499999999985789  0.1199752285000031   F   F   F
  0.4999999999997016  0.4166666666680854  0.1199752285000031   F   F   F
  0.6666666666633958  0.3333333333333357  0.1199752285000031   F   F   F
  0.8333333333319928  0.2499999999985789  0.1199752285000031   F   F   F
  0.7499999999972431  0.4166666666680854  0.1199752285000031   F   F   F
  0.9166666666658472  0.3333333333333357  0.1199752285000031   F   F   F
  0.5000619019816025  0.0832160718695547  0.2379491485885777   T   T   T
  0.6669542480729441  0.9996562313175523  0.2379423607041589   T   T   T
  0.5842230102114855  0.1656812222550355  0.2373022680142271   T   T   T
  0.7504635014746643  0.0829830911200495  0.2379630427860459   T   T   T
  0.9167635290852578  0.9999864600998052  0.2380337875364480   T   T   T
  0.8334228723750716  0.1665848867537439  0.2380173157228206   T   T   T
  0.5001593977282155  0.3330392475113558  0.2379256040007755   T   T   T
  0.6667529054010480  0.2498655623301776  0.2380809443790566   T   T   T
  0.5833287970788243  0.4165747298427724  0.2379114227564079   T   T   T
  0.7502174760535375  0.3330774112745515  0.2379177429944680   T   T   T
  0.9167980083791619  0.2499123772964918  0.2379852732077848   T   T   T
  0.8333959257521469  0.4166354942484590  0.2378876354111908   T   T   T
  0.5000591854184208  0.9998137842873014  0.3585278054212331   T   T   T
  0.5839039759824831  0.0820667501555977  0.3584975642163983   T   T   T
  0.6671372228093637  0.1662701189245415  0.3584710670062081   T   T   T
  0.7501124178037706  0.9998999620733982  0.3585654092062779   T   T   T
  0.8334877833447712  0.0832371762269158  0.3585709351506703   T   T   T
  0.9166615045796686  0.1666612492648414  0.3584474416270736   T   T   T
  0.5008018476490675  0.2479260740176497  0.3552676328609677   T   T   T
  0.5833274809110786  0.3332279186687196  0.3583091039196615   T   T   T
  0.6670200029304807  0.4162973123738359  0.3572855376373241   T   T   T
  0.7500882408446813  0.2497719455715983  0.3584869546040371   T   T   T
  0.8334607247106841  0.3333128602836373  0.3582841122193218   T   T   T
  0.9167817454036652  0.4166234661222453  0.3583635233321887   T   T   T
  0.4999999999989626  0.4999999999971649  0.0000000000000000   F   F   F
  0.5833333333328170  0.5833333333319146  0.0000000000000000   F   F   F
  0.6666666666666643  0.6666666666666643  0.0000000000000000   F   F   F
  0.7500000000014211  0.4999999999971649  0.0000000000000000   F   F   F
  0.8333333333303585  0.5833333333319146  0.0000000000000000   F   F   F
  0.9166666666642129  0.6666666666666643  0.0000000000000000   F   F   F
  0.4999999999980602  0.7500000000014211  0.0000000000000000   F   F   F
  0.5833333333347497  0.8333333333305006  0.0000000000000000   F   F   F
  0.6666666666636942  0.9166666666652503  0.0000000000000000   F   F   F
  0.7499999999956088  0.7500000000014211  0.0000000000000000   F   F   F
  0.8333333333322983  0.8333333333305006  0.0000000000000000   F   F   F
  0.9166666666661456  0.9166666666652503  0.0000000000000000   F   F   F
  0.5833333333314741  0.4999999999971649  0.1199752285000031   F   F   F
  0.4999999999967244  0.6666666666666643  0.1199752285000031   F   F   F
  0.6666666666653285  0.5833333333319146  0.1199752285000031   F   F   F
  0.8333333333339326  0.4999999999971649  0.1199752285000031   F   F   F
  0.7499999999991829  0.6666666666666643  0.1199752285000031   F   F   F
  0.9166666666628700  0.5833333333319146  0.1199752285000031   F   F   F
  0.5833333333305788  0.7500000000014211  0.1199752285000031   F   F   F
  0.4999999999986642  0.9166666666652503  0.1199752285000031   F   F   F
  0.6666666666672683  0.8333333333305006  0.1199752285000031   F   F   F
  0.8333333333281203  0.7500000000014211  0.1199752285000031   F   F   F
  0.7499999999962057  0.9166666666652503  0.1199752285000031   F   F   F
  0.9166666666648098  0.8333333333305006  0.1199752285000031   F   F   F
  0.5000220763475357  0.5839415243883920  0.2375639432924911   T   T   T
  0.6666754584226763  0.5000957714306363  0.2378998293903332   T   T   T
  0.5834278490056938  0.6667947927243978  0.2379848109364519   T   T   T
  0.7500154534995805  0.5835139925001906  0.2379134590116538   T   T   T
  0.9166457469258004  0.5000367566531532  0.2380119785048103   T   T   T
  0.8333578097636360  0.6666625206036034  0.2380023488167646   T   T   T
  0.5000071508470947  0.8334179469073044  0.2380246628186658   T   T   T
  0.6666604654668482  0.7500229051656243  0.2380318789377069   T   T   T
  0.5833456870557054  0.9166440540161518  0.2380284066779763   T   T   T
  0.7500043960525090  0.8332695432628082  0.2380255016030810   T   T   T
  0.9166890908010801  0.7499866725635895  0.2379995974249620   T   T   T
  0.8334295964079029  0.9165643186994301  0.2380358153705264   T   T   T
  0.4999026966062150  0.5010055886362962  0.3567807154615655   T   T   T
  0.5834280478936460  0.5835916437422384  0.3583852318953878   T   T   T
  0.6667346234323310  0.6666396931380290  0.3585818933834992   T   T   T
  0.7503321444775938  0.5001026901033615  0.3579196455451349   T   T   T
  0.8333987431437526  0.5834388429763415  0.3584525154084808   T   T   T
  0.9167004202059653  0.6666700835862647  0.3584462033439533   T   T   T
  0.5000742675127892  0.7500508541170349  0.3585000129301221   T   T   T
  0.5833635286866513  0.8332489142555786  0.3584397979013131   T   T   T
  0.6668494484478550  0.9163106070866979  0.3585416466444760   T   T   T
  0.7500387654156894  0.7499460903805811  0.3584727195294072   T   T   T
  0.8333663154469594  0.8332941034119451  0.3584161379274046   T   T   T
  0.9166731292056435  0.9166747892140529  0.3583822400097896   T   T   T
  0.6352401667165216  0.3827421377866373  0.5214680801801149   T   T   T
  0.5925541244351179  0.5103317554718837  0.5297617431424947   T   T   T
  0.3458456505646403  0.5563138390497587  0.5305431719420048   T   T   T
  0.3895542678932447  0.4715415190147637  0.5233769170711862   T   T   T
  0.3523222869616249  0.4295899825323883  0.5196947050726983   T   T   T
  0.3911926891182593  0.3506397890640002  0.5148801042112416   T   T   T
  0.4710846116551867  0.3108315068211793  0.5136839285696492   T   T   T
  0.5102445533975188  0.3515081752336033  0.5159637434553267   T   T   T
  0.4700776855655885  0.4308045700454190  0.5211859811070350   T   T   T
  0.5832819017482984  0.4485066050633538  0.5248119166375111   T   T   T
  0.6705403053577436  0.4928762958716776  0.5325783262802587   T   T   T
  0.5066607885014343  0.4735166743154303  0.5240707209363992   T   T   T
  0.5111454057854194  0.2325919839853772  0.5111470492719830   T   T   T
  0.2904016102841628  0.4601837840599441  0.5207268859935362   T   T   T
  0.3602431893422165  0.3197208197607826  0.5133202621909218   T   T   T
  0.5719513722520885  0.3215532859219175  0.5154436069879321   T   T   T
  0.4728413707238869  0.5307568941914123  0.5264395828294611   T   T   T
  0.4833720339185650  0.2050619611263494  0.4970139854924848   T   T   T
  0.5668068972031777  0.2063174477229108  0.4982378026096929   T   T   T
  0.3591089367501775  0.5752146633696272  0.5778381014539447   T   T   T
  0.2845876017830152  0.5774098972289746  0.5295390364370188   T   T   T
  0.3579844437276201  0.5851338487276571  0.4893389564161477   T   T   T
  0.6682913432775964  0.5475004414244113  0.5270476149383712   T   T   T
  0.6959626382012282  0.4662841367376159  0.5807474027918660   T   T   T
  0.7035486481217305  0.4543864397003587  0.4916255701176908   T   T   T
 
  0.00000000E+00  0.00000000E+00  0.00000000E+00
  0.00000000E+00  0.00000000E+00  0.00000000E+00
  0.00000000E+00  0.00000000E+00  0.00000000E+00
  0.00000000E+00  0.00000000E+00  0.00000000E+00
  0.00000000E+00  0.00000000E+00  0.00000000E+00
  0.00000000E+00  0.00000000E+00  0.00000000E+00
  0.00000000E+00  0.00000000E+00  0.00000000E+00
  0.00000000E+00  0.00000000E+00  0.00000000E+00
  0.00000000E+00  0.00000000E+00  0.00000000E+00
  0.00000000E+00  0.00000000E+00  0.00000000E+00
  0.00000000E+00  0.00000000E+00  0.00000000E+00
  0.00000000E+00  0.00000000E+00  0.00000000E+00
  0.00000000E+00  0.00000000E+00  0.00000000E+00
  0.00000000E+00  0.00000000E+00  0.00000000E+00
  0.00000000E+00  0.00000000E+00  0.00000000E+00
  0.00000000E+00  0.00000000E+00  0.00000000E+00
  0.00000000E+00  0.00000000E+00  0.00000000E+00
  0.00000000E+00  0.00000000E+00  0.00000000E+00
  0.00000000E+00  0.00000000E+00  0.00000000E+00
  0.00000000E+00  0.00000000E+00  0.00000000E+00
  0.00000000E+00  0.00000000E+00  0.00000000E+00
  0.00000000E+00  0.00000000E+00  0.00000000E+00
  0.00000000E+00  0.00000000E+00  0.00000000E+00
  0.00000000E+00  0.00000000E+00  0.00000000E+00
  0.00000000E+00  0.00000000E+00  0.00000000E+00
  0.00000000E+00  0.00000000E+00  0.00000000E+00
  0.00000000E+00  0.00000000E+00  0.00000000E+00
  0.00000000E+00  0.00000000E+00  0.00000000E+00
  0.00000000E+00  0.00000000E+00  0.00000000E+00
  0.00000000E+00  0.00000000E+00  0.00000000E+00
  0.00000000E+00  0.00000000E+00  0.00000000E+00
  0.00000000E+00  0.00000000E+00  0.00000000E+00
  0.00000000E+00  0.00000000E+00  0.00000000E+00
  0.00000000E+00  0.00000000E+00  0.00000000E+00
  0.00000000E+00  0.00000000E+00  0.00000000E+00
  0.00000000E+00  0.00000000E+00  0.00000000E+00
  0.00000000E+00  0.00000000E+00  0.00000000E+00
  0.00000000E+00  0.00000000E+00  0.00000000E+00
  0.00000000E+00  0.00000000E+00  0.00000000E+00
  0.00000000E+00  0.00000000E+00  0.00000000E+00
  0.00000000E+00  0.00000000E+00  0.00000000E+00
  0.00000000E+00  0.00000000E+00  0.00000000E+00
  0.00000000E+00  0.00000000E+00  0.00000000E+00
  0.00000000E+00  0.00000000E+00  0.00000000E+00
  0.00000000E+00  0.00000000E+00  0.00000000E+00
  0.00000000E+00  0.00000000E+00  0.00000000E+00
  0.00000000E+00  0.00000000E+00  0.00000000E+00
  0.00000000E+00  0.00000000E+00  0.00000000E+00
  0.00000000E+00  0.00000000E+00  0.00000000E+00
  0.00000000E+00  0.00000000E+00  0.00000000E+00
  0.00000000E+00  0.00000000E+00  0.00000000E+00
  0.00000000E+00  0.00000000E+00  0.00000000E+00
  0.00000000E+00  0.00000000E+00  0.00000000E+00
  0.00000000E+00  0.00000000E+00  0.00000000E+00
  0.00000000E+00  0.00000000E+00  0.00000000E+00
  0.00000000E+00  0.00000000E+00  0.00000000E+00
  0.00000000E+00  0.00000000E+00  0.00000000E+00
  0.00000000E+00  0.00000000E+00  0.00000000E+00
  0.00000000E+00  0.00000000E+00  0.00000000E+00
  0.00000000E+00  0.00000000E+00  0.00000000E+00
  0.00000000E+00  0.00000000E+00  0.00000000E+00
  0.00000000E+00  0.00000000E+00  0.00000000E+00
  0.00000000E+00  0.00000000E+00  0.00000000E+00
  0.00000000E+00  0.00000000E+00  0.00000000E+00
  0.00000000E+00  0.00000000E+00  0.00000000E+00
  0.00000000E+00  0.00000000E+00  0.00000000E+00
  0.00000000E+00  0.00000000E+00  0.00000000E+00
  0.00000000E+00  0.00000000E+00  0.00000000E+00
  0.00000000E+00  0.00000000E+00  0.00000000E+00
  0.00000000E+00  0.00000000E+00  0.00000000E+00
  0.00000000E+00  0.00000000E+00  0.00000000E+00
  0.00000000E+00  0.00000000E+00  0.00000000E+00
  0.00000000E+00  0.00000000E+00  0.00000000E+00
  0.00000000E+00  0.00000000E+00  0.00000000E+00
  0.00000000E+00  0.00000000E+00  0.00000000E+00
  0.00000000E+00  0.00000000E+00  0.00000000E+00
  0.00000000E+00  0.00000000E+00  0.00000000E+00
  0.00000000E+00  0.00000000E+00  0.00000000E+00
  0.00000000E+00  0.00000000E+00  0.00000000E+00
  0.00000000E+00  0.00000000E+00  0.00000000E+00
  0.00000000E+00  0.00000000E+00  0.00000000E+00
  0.00000000E+00  0.00000000E+00  0.00000000E+00
  0.00000000E+00  0.00000000E+00  0.00000000E+00
  0.00000000E+00  0.00000000E+00  0.00000000E+00
  0.00000000E+00  0.00000000E+00  0.00000000E+00
  0.00000000E+00  0.00000000E+00  0.00000000E+00
  0.00000000E+00  0.00000000E+00  0.00000000E+00
  0.00000000E+00  0.00000000E+00  0.00000000E+00
  0.00000000E+00  0.00000000E+00  0.00000000E+00
  0.00000000E+00  0.00000000E+00  0.00000000E+00
  0.00000000E+00  0.00000000E+00  0.00000000E+00
  0.00000000E+00  0.00000000E+00  0.00000000E+00
  0.00000000E+00  0.00000000E+00  0.00000000E+00
  0.00000000E+00  0.00000000E+00  0.00000000E+00
  0.00000000E+00  0.00000000E+00  0.00000000E+00
  0.00000000E+00  0.00000000E+00  0.00000000E+00
  0.00000000E+00  0.00000000E+00  0.00000000E+00
  0.00000000E+00  0.00000000E+00  0.00000000E+00
  0.00000000E+00  0.00000000E+00  0.00000000E+00
  0.00000000E+00  0.00000000E+00  0.00000000E+00
  0.00000000E+00  0.00000000E+00  0.00000000E+00
  0.00000000E+00  0.00000000E+00  0.00000000E+00
  0.00000000E+00  0.00000000E+00  0.00000000E+00
  0.00000000E+00  0.00000000E+00  0.00000000E+00
  0.00000000E+00  0.00000000E+00  0.00000000E+00
  0.00000000E+00  0.00000000E+00  0.00000000E+00
  0.00000000E+00  0.00000000E+00  0.00000000E+00
  0.00000000E+00  0.00000000E+00  0.00000000E+00
  0.00000000E+00  0.00000000E+00  0.00000000E+00
  0.00000000E+00  0.00000000E+00  0.00000000E+00
  0.00000000E+00  0.00000000E+00  0.00000000E+00
  0.00000000E+00  0.00000000E+00  0.00000000E+00
  0.00000000E+00  0.00000000E+00  0.00000000E+00
  0.00000000E+00  0.00000000E+00  0.00000000E+00
  0.00000000E+00  0.00000000E+00  0.00000000E+00
  0.00000000E+00  0.00000000E+00  0.00000000E+00
  0.00000000E+00  0.00000000E+00  0.00000000E+00
  0.00000000E+00  0.00000000E+00  0.00000000E+00
  0.00000000E+00  0.00000000E+00  0.00000000E+00
  0.00000000E+00  0.00000000E+00  0.00000000E+00
  0.00000000E+00  0.00000000E+00  0.00000000E+00
  0.00000000E+00  0.00000000E+00  0.00000000E+00
  0.00000000E+00  0.00000000E+00  0.00000000E+00
  0.00000000E+00  0.00000000E+00  0.00000000E+00
  0.00000000E+00  0.00000000E+00  0.00000000E+00
  0.00000000E+00  0.00000000E+00  0.00000000E+00
  0.00000000E+00  0.00000000E+00  0.00000000E+00
  0.00000000E+00  0.00000000E+00  0.00000000E+00
  0.00000000E+00  0.00000000E+00  0.00000000E+00
  0.00000000E+00  0.00000000E+00  0.00000000E+00
  0.00000000E+00  0.00000000E+00  0.00000000E+00
  0.00000000E+00  0.00000000E+00  0.00000000E+00
  0.00000000E+00  0.00000000E+00  0.00000000E+00
  0.00000000E+00  0.00000000E+00  0.00000000E+00
  0.00000000E+00  0.00000000E+00  0.00000000E+00
  0.00000000E+00  0.00000000E+00  0.00000000E+00
  0.00000000E+00  0.00000000E+00  0.00000000E+00
  0.00000000E+00  0.00000000E+00  0.00000000E+00
  0.00000000E+00  0.00000000E+00  0.00000000E+00
  0.00000000E+00  0.00000000E+00  0.00000000E+00
  0.00000000E+00  0.00000000E+00  0.00000000E+00
  0.00000000E+00  0.00000000E+00  0.00000000E+00
  0.00000000E+00  0.00000000E+00  0.00000000E+00
  0.00000000E+00  0.00000000E+00  0.00000000E+00
  0.00000000E+00  0.00000000E+00  0.00000000E+00
  0.00000000E+00  0.00000000E+00  0.00000000E+00
  0.00000000E+00  0.00000000E+00  0.00000000E+00
  0.00000000E+00  0.00000000E+00  0.00000000E+00
  0.00000000E+00  0.00000000E+00  0.00000000E+00
  0.00000000E+00  0.00000000E+00  0.00000000E+00
  0.00000000E+00  0.00000000E+00  0.00000000E+00
  0.00000000E+00  0.00000000E+00  0.00000000E+00
  0.00000000E+00  0.00000000E+00  0.00000000E+00
  0.00000000E+00  0.00000000E+00  0.00000000E+00
  0.00000000E+00  0.00000000E+00  0.00000000E+00
  0.00000000E+00  0.00000000E+00  0.00000000E+00
  0.00000000E+00  0.00000000E+00  0.00000000E+00
  0.00000000E+00  0.00000000E+00  0.00000000E+00
  0.00000000E+00  0.00000000E+00  0.00000000E+00
  0.00000000E+00  0.00000000E+00  0.00000000E+00
  0.00000000E+00  0.00000000E+00  0.00000000E+00
  0.00000000E+00  0.00000000E+00  0.00000000E+00
  0.00000000E+00  0.00000000E+00  0.00000000E+00
  0.00000000E+00  0.00000000E+00  0.00000000E+00
  0.00000000E+00  0.00000000E+00  0.00000000E+00
  0.00000000E+00  0.00000000E+00  0.00000000E+00
  0.00000000E+00  0.00000000E+00  0.00000000E+00
  0.00000000E+00  0.00000000E+00  0.00000000E+00
  0.00000000E+00  0.00000000E+00  0.00000000E+00
  0.00000000E+00  0.00000000E+00  0.00000000E+00
  0.00000000E+00  0.00000000E+00  0.00000000E+00
  0.00000000E+00  0.00000000E+00  0.00000000E+00
  0.00000000E+00  0.00000000E+00  0.00000000E+00
  0.00000000E+00  0.00000000E+00  0.00000000E+00
  0.00000000E+00  0.00000000E+00  0.00000000E+00
  0.00000000E+00  0.00000000E+00  0.00000000E+00
  0.00000000E+00  0.00000000E+00  0.00000000E+00
  0.00000000E+00  0.00000000E+00  0.00000000E+00
  0.00000000E+00  0.00000000E+00  0.00000000E+00
  0.00000000E+00  0.00000000E+00  0.00000000E+00
  0.00000000E+00  0.00000000E+00  0.00000000E+00
  0.00000000E+00  0.00000000E+00  0.00000000E+00
  0.00000000E+00  0.00000000E+00  0.00000000E+00
  0.00000000E+00  0.00000000E+00  0.00000000E+00
  0.00000000E+00  0.00000000E+00  0.00000000E+00
  0.00000000E+00  0.00000000E+00  0.00000000E+00
  0.00000000E+00  0.00000000E+00  0.00000000E+00
  0.00000000E+00  0.00000000E+00  0.00000000E+00
  0.00000000E+00  0.00000000E+00  0.00000000E+00
  0.00000000E+00  0.00000000E+00  0.00000000E+00
  0.00000000E+00  0.00000000E+00  0.00000000E+00
  0.00000000E+00  0.00000000E+00  0.00000000E+00
  0.00000000E+00  0.00000000E+00  0.00000000E+00
  0.00000000E+00  0.00000000E+00  0.00000000E+00
  0.00000000E+00  0.00000000E+00  0.00000000E+00
  0.00000000E+00  0.00000000E+00  0.00000000E+00
  0.00000000E+00  0.00000000E+00  0.00000000E+00
  0.00000000E+00  0.00000000E+00  0.00000000E+00
  0.00000000E+00  0.00000000E+00  0.00000000E+00
  0.00000000E+00  0.00000000E+00  0.00000000E+00
  0.00000000E+00  0.00000000E+00  0.00000000E+00
  0.00000000E+00  0.00000000E+00  0.00000000E+00
  0.00000000E+00  0.00000000E+00  0.00000000E+00
  0.00000000E+00  0.00000000E+00  0.00000000E+00
  0.00000000E+00  0.00000000E+00  0.00000000E+00
  0.00000000E+00  0.00000000E+00  0.00000000E+00
  0.00000000E+00  0.00000000E+00  0.00000000E+00
  0.00000000E+00  0.00000000E+00  0.00000000E+00
  0.00000000E+00  0.00000000E+00  0.00000000E+00
  0.00000000E+00  0.00000000E+00  0.00000000E+00
  0.00000000E+00  0.00000000E+00  0.00000000E+00
  0.00000000E+00  0.00000000E+00  0.00000000E+00
  0.00000000E+00  0.00000000E+00  0.00000000E+00
  0.00000000E+00  0.00000000E+00  0.00000000E+00
  0.00000000E+00  0.00000000E+00  0.00000000E+00
  0.00000000E+00  0.00000000E+00  0.00000000E+00
  0.00000000E+00  0.00000000E+00  0.00000000E+00
