Pt  H  C                                
   1.00000000000000     
    19.4393438986000007    0.0000000000000000    0.0000000000000000
     9.7196719493000003   16.8349656490999990    0.0000000000000000
     0.0000000000000000    0.0000000000000000   20.0000000000000000
   Pt   H    C 
   192    26    12
Selective dynamics
Direct
  0.0000000000000000  0.0000000000000000  0.0000000000000000   F   F   F
  0.0833333333318009  0.0833333333338260  0.0000000000000000   F   F   F
  0.1666666666687462  0.1666666666676591  0.0000000000000000   F   F   F
  0.2500000000025722  0.0000000000000000  0.0000000000000000   F   F   F
  0.3333333333343731  0.0833333333338260  0.0000000000000000   F   F   F
  0.4166666666661740  0.1666666666676591  0.0000000000000000   F   F   F
  0.9999999999979750  0.2500000000014850  0.0000000000000000   F   F   F
  0.0833333333349131  0.3333333333353110  0.0000000000000000   F   F   F
  0.1666666666667140  0.4166666666691441  0.0000000000000000   F   F   F
  0.2500000000005400  0.2500000000014850  0.0000000000000000   F   F   F
  0.3333333333323409  0.3333333333353110  0.0000000000000000   F   F   F
  0.4166666666641419  0.4166666666691441  0.0000000000000000   F   F   F
  0.0833333333341884  0.0000000000000000  0.1145474324399984   F   F   F
  0.0000000000003624  0.1666666666676591  0.1145474324399984   F   F   F
  0.1666666666659893  0.0833333333338260  0.1145474324399984   F   F   F
  0.3333333333316162  0.0000000000000000  0.1145474324399984   F   F   F
  0.2499999999977902  0.1666666666676591  0.1145474324399984   F   F   F
  0.4166666666685614  0.0833333333338260  0.1145474324399984   F   F   F
  0.0833333333321633  0.2500000000014850  0.1145474324399984   F   F   F
  0.9999999999983373  0.4166666666691441  0.1145474324399984   F   F   F
  0.1666666666639642  0.3333333333353110  0.1145474324399984   F   F   F
  0.3333333333347355  0.2500000000014850  0.1145474324399984   F   F   F
  0.2500000000009024  0.4166666666691441  0.1145474324399984   F   F   F
  0.4166666666665364  0.3333333333353110  0.1145474324399984   F   F   F
  0.0000654749362293  0.0833228162817602  0.2271276424335230   T   T   T
  0.1665780815829604  0.0000581383010967  0.2270584605478136   T   T   T
  0.0832874034190207  0.1666539813266334  0.2271438531587372   T   T   T
  0.2498176550986445  0.0834396583941341  0.2270160012493589   T   T   T
  0.4165696134534205  0.0001758328098439  0.2270636985764606   T   T   T
  0.3332477071517612  0.1667392942764149  0.2269962426516214   T   T   T
  0.0000949962755974  0.3331436989242500  0.2272030311590763   T   T   T
  0.1665860074382324  0.2500618512149843  0.2270223102783382   T   T   T
  0.0832938005791252  0.4164806771643795  0.2270217400092993   T   T   T
  0.2501007740745546  0.3333699320757851  0.2271500588855810   T   T   T
  0.4166412500707236  0.2501511977956691  0.2271806841840381   T   T   T
  0.3331362467488063  0.4166263600787463  0.2268556252594091   T   T   T
  0.0000606314478440  0.0000264109671850  0.3416175043104512   T   T   T
  0.0833590177795168  0.0833382139076862  0.3416803392138939   T   T   T
  0.1665885618891452  0.1667173529099432  0.3416508547957300   T   T   T
  0.2499130420767164  0.0000630392498959  0.3415986842096622   T   T   T
  0.3331154925058361  0.0833590634961843  0.3415385849348703   T   T   T
  0.4168893404367299  0.1660388871541391  0.3412205799260135   T   T   T
  0.0000365621610397  0.2499581793770902  0.3417529749572041   T   T   T
  0.0833688274228786  0.3332893838541183  0.3417431288373855   T   T   T
  0.1661907028019352  0.4169924837804554  0.3414825973322060   T   T   T
  0.2498276557955365  0.2498583096931382  0.3415362554036596   T   T   T
  0.3328083250245391  0.3335612619586124  0.3418239878630387   T   T   T
  0.4161628313832024  0.4172535733484884  0.3412991832243690   T   T   T
  0.0000000000040572  0.4999999999970299  0.0000000000000000   F   F   F
  0.0833333333358581  0.5833333333308559  0.0000000000000000   F   F   F
  0.1666666666676591  0.6666666666646890  0.0000000000000000   F   F   F
  0.2500000000014850  0.4999999999970299  0.0000000000000000   F   F   F
  0.3333333333332860  0.5833333333308559  0.0000000000000000   F   F   F
  0.4166666666702312  0.6666666666646890  0.0000000000000000   F   F   F
  0.0000000000020250  0.7499999999985150  0.0000000000000000   F   F   F
  0.0833333333338260  0.8333333333323409  0.0000000000000000   F   F   F
  0.1666666666656269  0.9166666666661740  0.0000000000000000   F   F   F
  0.2499999999994529  0.7499999999985150  0.0000000000000000   F   F   F
  0.3333333333363981  0.8333333333323409  0.0000000000000000   F   F   F
  0.4166666666681991  0.9166666666661740  0.0000000000000000   F   F   F
  0.0833333333331012  0.4999999999970299  0.1145474324399984   F   F   F
  0.9999999999992752  0.6666666666646890  0.1145474324399984   F   F   F
  0.1666666666700465  0.5833333333308559  0.1145474324399984   F   F   F
  0.3333333333356734  0.4999999999970299  0.1145474324399984   F   F   F
  0.2500000000018474  0.6666666666646890  0.1145474324399984   F   F   F
  0.4166666666674743  0.5833333333308559  0.1145474324399984   F   F   F
  0.0833333333362205  0.7499999999985150  0.1145474324399984   F   F   F
  0.0000000000023874  0.9166666666661740  0.1145474324399984   F   F   F
  0.1666666666680214  0.8333333333323409  0.1145474324399984   F   F   F
  0.3333333333336483  0.7499999999985150  0.1145474324399984   F   F   F
  0.2499999999998153  0.9166666666661740  0.1145474324399984   F   F   F
  0.4166666666654493  0.8333333333323409  0.1145474324399984   F   F   F
  0.9999826271054685  0.5832723165916158  0.2269760600300916   T   T   T
  0.1663489035390006  0.5000613267221788  0.2268479574024593   T   T   T
  0.0832553929876920  0.6668394982884995  0.2270857908510925   T   T   T
  0.2497320775543559  0.5836442484623422  0.2268343046893714   T   T   T
  0.4163059854275786  0.5000574836155087  0.2265180679373530   T   T   T
  0.3333925929714456  0.6669010740963244  0.2269199326122340   T   T   T
  0.9999777952120824  0.8334614932123126  0.2270955623732589   T   T   T
  0.1666397875506361  0.7501869161081113  0.2270266602850808   T   T   T
  0.0833115533841896  0.9167536474844277  0.2270906312217242   T   T   T
  0.2500208407847655  0.8334040763573124  0.2270084336363474   T   T   T
  0.4167274838911103  0.7502070492315115  0.2269859927131446   T   T   T
  0.3332007712179001  0.9167908448450256  0.2270394152494333   T   T   T
  0.0000384231445660  0.4999855049832982  0.3415278829052013   T   T   T
  0.0831771830167412  0.5835468042760378  0.3415668207188737   T   T   T
  0.1665118501113035  0.6670585561167773  0.3416609754610518   T   T   T
  0.2490730943942063  0.5009929751798110  0.3409561091112923   T   T   T
  0.3330717524320367  0.5839523367938086  0.3412353729657315   T   T   T
  0.4167016656677401  0.6667837451388843  0.3416253860006943   T   T   T
  0.9999974851359067  0.7500838366420119  0.3416544384035892   T   T   T
  0.0833611412938973  0.8333603428431721  0.3415986353367020   T   T   T
  0.1667409405842487  0.9166753314099072  0.3415737518398898   T   T   T
  0.2499172863426188  0.7501784931273028  0.3415903177400768   T   T   T
  0.3332334631152735  0.8334106664727988  0.3416049077878991   T   T   T
  0.4162805456087965  0.9169809901707456  0.3416193023820308   T   T   T
  0.5000000000000000  0.0000000000000000  0.0000000000000000   F   F   F
  0.5833333333318009  0.0833333333338260  0.0000000000000000   F   F   F
  0.6666666666687462  0.1666666666676591  0.0000000000000000   F   F   F
  0.7500000000025722  0.0000000000000000  0.0000000000000000   F   F   F
  0.8333333333343731  0.0833333333338260  0.0000000000000000   F   F   F
  0.9166666666661740  0.1666666666676591  0.0000000000000000   F   F   F
  0.4999999999979678  0.2500000000014850  0.0000000000000000   F   F   F
  0.5833333333349131  0.3333333333353110  0.0000000000000000   F   F   F
  0.6666666666667140  0.4166666666691441  0.0000000000000000   F   F   F
  0.7500000000005400  0.2500000000014850  0.0000000000000000   F   F   F
  0.8333333333323409  0.3333333333353110  0.0000000000000000   F   F   F
  0.9166666666641419  0.4166666666691441  0.0000000000000000   F   F   F
  0.5833333333341884  0.0000000000000000  0.1145474324399984   F   F   F
  0.5000000000003624  0.1666666666676591  0.1145474324399984   F   F   F
  0.6666666666659893  0.0833333333338260  0.1145474324399984   F   F   F
  0.8333333333316162  0.0000000000000000  0.1145474324399984   F   F   F
  0.7499999999977902  0.1666666666676591  0.1145474324399984   F   F   F
  0.9166666666685614  0.0833333333338260  0.1145474324399984   F   F   F
  0.5833333333321633  0.2500000000014850  0.1145474324399984   F   F   F
  0.4999999999983302  0.4166666666691441  0.1145474324399984   F   F   F
  0.6666666666639642  0.3333333333353110  0.1145474324399984   F   F   F
  0.8333333333347355  0.2500000000014850  0.1145474324399984   F   F   F
  0.7500000000009024  0.4166666666691441  0.1145474324399984   F   F   F
  0.9166666666665364  0.3333333333353110  0.1145474324399984   F   F   F
  0.5000835326461208  0.0834214395920612  0.2268551622630875   T   T   T
  0.6668007957835016  0.0001743726355727  0.2269513726742734   T   T   T
  0.5834951280117919  0.1666241617045968  0.2268739080136928   T   T   T
  0.7502022914463993  0.0833537370074320  0.2270723818331611   T   T   T
  0.9167632688900047  0.0000590558975594  0.2271322075543408   T   T   T
  0.8335421262385959  0.1666077451084931  0.2271473543620160   T   T   T
  0.5000387370010989  0.3334524726776154  0.2272549285345139   T   T   T
  0.6668993302436153  0.2498204716288210  0.2270680135655199   T   T   T
  0.5836552539060453  0.4163795411401352  0.2267604426751371   T   T   T
  0.7503112205065987  0.3331437863594308  0.2270799787857520   T   T   T
  0.9168253629363338  0.2499081902476737  0.2271328034993820   T   T   T
  0.8335535387611954  0.4165386067199920  0.2270197967861392   T   T   T
  0.4999126199278515  0.0000880972144745  0.3415394665505068   T   T   T
  0.5834283810089057  0.0832819401744119  0.3415765447047347   T   T   T
  0.6667823810843081  0.1666150164636500  0.3416419263648056   T   T   T
  0.7500287364812445  0.0000596864375510  0.3415568955054084   T   T   T
  0.8333503246092808  0.0833496639805874  0.3416799050706981   T   T   T
  0.9166782845345934  0.1666752517724439  0.3417107707107241   T   T   T
  0.5006619067296153  0.2495081446973178  0.3412788036543616   T   T   T
  0.5836791750041144  0.3332045248968584  0.3417389411592993   T   T   T
  0.6668217771003454  0.4165077901563727  0.3415854869134806   T   T   T
  0.7500979056348785  0.2499577795608458  0.3416797530255409   T   T   T
  0.8334586712583384  0.3332602508709826  0.3416526004246262   T   T   T
  0.9168216844515185  0.4165952715005907  0.3416541175959644   T   T   T
  0.5000000000040572  0.4999999999970299  0.0000000000000000   F   F   F
  0.5833333333358581  0.5833333333308559  0.0000000000000000   F   F   F
  0.6666666666676591  0.6666666666646890  0.0000000000000000   F   F   F
  0.7500000000014850  0.4999999999970299  0.0000000000000000   F   F   F
  0.8333333333332860  0.5833333333308559  0.0000000000000000   F   F   F
  0.9166666666702312  0.6666666666646890  0.0000000000000000   F   F   F
  0.5000000000020250  0.7499999999985150  0.0000000000000000   F   F   F
  0.5833333333338260  0.8333333333323409  0.0000000000000000   F   F   F
  0.6666666666656269  0.9166666666661740  0.0000000000000000   F   F   F
  0.7499999999994529  0.7499999999985150  0.0000000000000000   F   F   F
  0.8333333333363981  0.8333333333323409  0.0000000000000000   F   F   F
  0.9166666666681991  0.9166666666661740  0.0000000000000000   F   F   F
  0.5833333333331012  0.4999999999970299  0.1145474324399984   F   F   F
  0.4999999999992752  0.6666666666646890  0.1145474324399984   F   F   F
  0.6666666666700465  0.5833333333308559  0.1145474324399984   F   F   F
  0.8333333333356734  0.4999999999970299  0.1145474324399984   F   F   F
  0.7500000000018474  0.6666666666646890  0.1145474324399984   F   F   F
  0.9166666666674743  0.5833333333308559  0.1145474324399984   F   F   F
  0.5833333333362205  0.7499999999985150  0.1145474324399984   F   F   F
  0.5000000000023874  0.9166666666661740  0.1145474324399984   F   F   F
  0.6666666666680214  0.8333333333323409  0.1145474324399984   F   F   F
  0.8333333333336483  0.7499999999985150  0.1145474324399984   F   F   F
  0.7499999999998153  0.9166666666661740  0.1145474324399984   F   F   F
  0.9166666666654493  0.8333333333323409  0.1145474324399984   F   F   F
  0.4999807195858716  0.5836290736088587  0.2265561211954457   T   T   T
  0.6669026355903496  0.4998712189683453  0.2267541957250261   T   T   T
  0.5834224876491022  0.6670182018185975  0.2270185782888747   T   T   T
  0.7500218543002630  0.5834572639122729  0.2270245601403130   T   T   T
  0.9167611227240183  0.4997775250954780  0.2269442411937701   T   T   T
  0.8335634126502812  0.6665877506982290  0.2269117390629256   T   T   T
  0.4998685615551530  0.8336020185965403  0.2269791125841578   T   T   T
  0.6667131321785545  0.7502186524281660  0.2268708650642170   T   T   T
  0.5833411110658191  0.9169499832038016  0.2267407085967261   T   T   T
  0.7500923714293066  0.8335667558687543  0.2268452077418038   T   T   T
  0.9167322367307636  0.7501103417650413  0.2270253255663905   T   T   T
  0.8334106315054195  0.9168203868441464  0.2270587741663290   T   T   T
  0.5001957104038877  0.5000064355053206  0.3399360828730648   T   T   T
  0.5840194145866177  0.5829679836691964  0.3406960682411162   T   T   T
  0.6675198864513974  0.6664802744114638  0.3414683071201970   T   T   T
  0.7504785178676743  0.4995921696643807  0.3414268657883279   T   T   T
  0.8339342785298648  0.5832025145066495  0.3414207391897671   T   T   T
  0.9169268099827098  0.6667056361890116  0.3415103325940078   T   T   T
  0.4996214494490087  0.7503924171408768  0.3416250912286646   T   T   T
  0.5829371254506015  0.8341885971727218  0.3409459727315395   T   T   T
  0.6668178760652235  0.9168725991117850  0.3413346465548922   T   T   T
  0.7505021313641601  0.7502371097000790  0.3409667770650938   T   T   T
  0.8334620335850639  0.8334488856396151  0.3415340428119495   T   T   T
  0.9167320832585005  0.9166957247168948  0.3416239217498412   T   T   T
  0.5973794672352610  0.8278873075309305  0.5533382306054009   T   T   T
  0.5801028283163482  0.8352416943744709  0.4656786611925672   T   T   T
  0.6778902023178002  0.8012410108165530  0.4965307636225593   T   T   T
  0.6820403629952675  0.6776610132916745  0.5421711825154568   T   T   T
  0.6671297258143798  0.6861451404708558  0.4546916017975197   T   T   T
  0.5222705619447336  0.7410963278638285  0.4691483961643951   T   T   T
  0.5321214060205197  0.7375398546901051  0.5573476812120470   T   T   T
  0.6240383864803491  0.5885362996818055  0.5504149817730392   T   T   T
  0.6132502839216940  0.5940213672962749  0.4625489055681168   T   T   T
  0.4693592888184179  0.6413942557900097  0.4721634391468518   T   T   T
  0.4746385280414813  0.6415357082468713  0.5606388609792916   T   T   T
  0.5682296458471943  0.4953001080682531  0.5611169716297078   T   T   T
  0.5715149461214637  0.4941181795104898  0.4727159708096014   T   T   T
  0.4291533013575803  0.5357391526948064  0.4655677323772016   T   T   T
  0.4192929946434332  0.5433022289508471  0.5535090600619269   T   T   T
  0.5121082486553705  0.3985803415066647  0.5661424963674239   T   T   T
  0.5330922120796033  0.3888649153988060  0.4793244487941705   T   T   T
  0.3960428328848616  0.4267267291496837  0.4507819950538171   T   T   T
  0.3651695015773981  0.4485803715988512  0.5349709614476394   T   T   T
  0.4595206997372085  0.3027475439490795  0.5640682798941581   T   T   T
  0.4843344068232995  0.2838678452721620  0.4782453261556415   T   T   T
  0.3425439661020103  0.3307514272929474  0.4494711002329314   T   T   T
  0.3150865894014468  0.3518204021315529  0.5344365250014994   T   T   T
  0.4327127622484045  0.1856668445519749  0.4775181756392761   T   T   T
  0.3320570829091928  0.2190870272436529  0.4994877202449949   T   T   T
  0.4026633385262386  0.2052802142644108  0.5627539860062487   T   T   T
  0.6232290313211669  0.7988962709902128  0.5051997154112404   T   T   T
  0.6383189354184621  0.7141916398518268  0.5035916577983794   T   T   T
  0.5636695023318798  0.7078311514068580  0.5108298978637946   T   T   T
  0.5815763968272661  0.6221175620434823  0.5100368542297027   T   T   T
  0.5092032100024719  0.6115629370132034  0.5153524637847563   T   T   T
  0.5323107653689760  0.5240950204851456  0.5161080085169893   T   T   T
  0.4617825118916203  0.5102684008278376  0.5130189194964959   T   T   T
  0.4858846385359448  0.4225822962062378  0.5166215180946658   T   T   T
  0.4167756404390403  0.4083267264410581  0.5038797085082100   T   T   T
  0.4360383628887448  0.3228042087174817  0.5130856277491110   T   T   T
  0.3650173723358842  0.3110886985779009  0.5021665008354322   T   T   T
  0.3837751805873519  0.2256646635344279  0.5110904432639379   T   T   T
 
  0.00000000E+00  0.00000000E+00  0.00000000E+00
  0.00000000E+00  0.00000000E+00  0.00000000E+00
  0.00000000E+00  0.00000000E+00  0.00000000E+00
  0.00000000E+00  0.00000000E+00  0.00000000E+00
  0.00000000E+00  0.00000000E+00  0.00000000E+00
  0.00000000E+00  0.00000000E+00  0.00000000E+00
  0.00000000E+00  0.00000000E+00  0.00000000E+00
  0.00000000E+00  0.00000000E+00  0.00000000E+00
  0.00000000E+00  0.00000000E+00  0.00000000E+00
  0.00000000E+00  0.00000000E+00  0.00000000E+00
  0.00000000E+00  0.00000000E+00  0.00000000E+00
  0.00000000E+00  0.00000000E+00  0.00000000E+00
  0.00000000E+00  0.00000000E+00  0.00000000E+00
  0.00000000E+00  0.00000000E+00  0.00000000E+00
  0.00000000E+00  0.00000000E+00  0.00000000E+00
  0.00000000E+00  0.00000000E+00  0.00000000E+00
  0.00000000E+00  0.00000000E+00  0.00000000E+00
  0.00000000E+00  0.00000000E+00  0.00000000E+00
  0.00000000E+00  0.00000000E+00  0.00000000E+00
  0.00000000E+00  0.00000000E+00  0.00000000E+00
  0.00000000E+00  0.00000000E+00  0.00000000E+00
  0.00000000E+00  0.00000000E+00  0.00000000E+00
  0.00000000E+00  0.00000000E+00  0.00000000E+00
  0.00000000E+00  0.00000000E+00  0.00000000E+00
  0.00000000E+00  0.00000000E+00  0.00000000E+00
  0.00000000E+00  0.00000000E+00  0.00000000E+00
  0.00000000E+00  0.00000000E+00  0.00000000E+00
  0.00000000E+00  0.00000000E+00  0.00000000E+00
  0.00000000E+00  0.00000000E+00  0.00000000E+00
  0.00000000E+00  0.00000000E+00  0.00000000E+00
  0.00000000E+00  0.00000000E+00  0.00000000E+00
  0.00000000E+00  0.00000000E+00  0.00000000E+00
  0.00000000E+00  0.00000000E+00  0.00000000E+00
  0.00000000E+00  0.00000000E+00  0.00000000E+00
  0.00000000E+00  0.00000000E+00  0.00000000E+00
  0.00000000E+00  0.00000000E+00  0.00000000E+00
  0.00000000E+00  0.00000000E+00  0.00000000E+00
  0.00000000E+00  0.00000000E+00  0.00000000E+00
  0.00000000E+00  0.00000000E+00  0.00000000E+00
  0.00000000E+00  0.00000000E+00  0.00000000E+00
  0.00000000E+00  0.00000000E+00  0.00000000E+00
  0.00000000E+00  0.00000000E+00  0.00000000E+00
  0.00000000E+00  0.00000000E+00  0.00000000E+00
  0.00000000E+00  0.00000000E+00  0.00000000E+00
  0.00000000E+00  0.00000000E+00  0.00000000E+00
  0.00000000E+00  0.00000000E+00  0.00000000E+00
  0.00000000E+00  0.00000000E+00  0.00000000E+00
  0.00000000E+00  0.00000000E+00  0.00000000E+00
  0.00000000E+00  0.00000000E+00  0.00000000E+00
  0.00000000E+00  0.00000000E+00  0.00000000E+00
  0.00000000E+00  0.00000000E+00  0.00000000E+00
  0.00000000E+00  0.00000000E+00  0.00000000E+00
  0.00000000E+00  0.00000000E+00  0.00000000E+00
  0.00000000E+00  0.00000000E+00  0.00000000E+00
  0.00000000E+00  0.00000000E+00  0.00000000E+00
  0.00000000E+00  0.00000000E+00  0.00000000E+00
  0.00000000E+00  0.00000000E+00  0.00000000E+00
  0.00000000E+00  0.00000000E+00  0.00000000E+00
  0.00000000E+00  0.00000000E+00  0.00000000E+00
  0.00000000E+00  0.00000000E+00  0.00000000E+00
  0.00000000E+00  0.00000000E+00  0.00000000E+00
  0.00000000E+00  0.00000000E+00  0.00000000E+00
  0.00000000E+00  0.00000000E+00  0.00000000E+00
  0.00000000E+00  0.00000000E+00  0.00000000E+00
  0.00000000E+00  0.00000000E+00  0.00000000E+00
  0.00000000E+00  0.00000000E+00  0.00000000E+00
  0.00000000E+00  0.00000000E+00  0.00000000E+00
  0.00000000E+00  0.00000000E+00  0.00000000E+00
  0.00000000E+00  0.00000000E+00  0.00000000E+00
  0.00000000E+00  0.00000000E+00  0.00000000E+00
  0.00000000E+00  0.00000000E+00  0.00000000E+00
  0.00000000E+00  0.00000000E+00  0.00000000E+00
  0.00000000E+00  0.00000000E+00  0.00000000E+00
  0.00000000E+00  0.00000000E+00  0.00000000E+00
  0.00000000E+00  0.00000000E+00  0.00000000E+00
  0.00000000E+00  0.00000000E+00  0.00000000E+00
  0.00000000E+00  0.00000000E+00  0.00000000E+00
  0.00000000E+00  0.00000000E+00  0.00000000E+00
  0.00000000E+00  0.00000000E+00  0.00000000E+00
  0.00000000E+00  0.00000000E+00  0.00000000E+00
  0.00000000E+00  0.00000000E+00  0.00000000E+00
  0.00000000E+00  0.00000000E+00  0.00000000E+00
  0.00000000E+00  0.00000000E+00  0.00000000E+00
  0.00000000E+00  0.00000000E+00  0.00000000E+00
  0.00000000E+00  0.00000000E+00  0.00000000E+00
  0.00000000E+00  0.00000000E+00  0.00000000E+00
  0.00000000E+00  0.00000000E+00  0.00000000E+00
  0.00000000E+00  0.00000000E+00  0.00000000E+00
  0.00000000E+00  0.00000000E+00  0.00000000E+00
  0.00000000E+00  0.00000000E+00  0.00000000E+00
  0.00000000E+00  0.00000000E+00  0.00000000E+00
  0.00000000E+00  0.00000000E+00  0.00000000E+00
  0.00000000E+00  0.00000000E+00  0.00000000E+00
  0.00000000E+00  0.00000000E+00  0.00000000E+00
  0.00000000E+00  0.00000000E+00  0.00000000E+00
  0.00000000E+00  0.00000000E+00  0.00000000E+00
  0.00000000E+00  0.00000000E+00  0.00000000E+00
  0.00000000E+00  0.00000000E+00  0.00000000E+00
  0.00000000E+00  0.00000000E+00  0.00000000E+00
  0.00000000E+00  0.00000000E+00  0.00000000E+00
  0.00000000E+00  0.00000000E+00  0.00000000E+00
  0.00000000E+00  0.00000000E+00  0.00000000E+00
  0.00000000E+00  0.00000000E+00  0.00000000E+00
  0.00000000E+00  0.00000000E+00  0.00000000E+00
  0.00000000E+00  0.00000000E+00  0.00000000E+00
  0.00000000E+00  0.00000000E+00  0.00000000E+00
  0.00000000E+00  0.00000000E+00  0.00000000E+00
  0.00000000E+00  0.00000000E+00  0.00000000E+00
  0.00000000E+00  0.00000000E+00  0.00000000E+00
  0.00000000E+00  0.00000000E+00  0.00000000E+00
  0.00000000E+00  0.00000000E+00  0.00000000E+00
  0.00000000E+00  0.00000000E+00  0.00000000E+00
  0.00000000E+00  0.00000000E+00  0.00000000E+00
  0.00000000E+00  0.00000000E+00  0.00000000E+00
  0.00000000E+00  0.00000000E+00  0.00000000E+00
  0.00000000E+00  0.00000000E+00  0.00000000E+00
  0.00000000E+00  0.00000000E+00  0.00000000E+00
  0.00000000E+00  0.00000000E+00  0.00000000E+00
  0.00000000E+00  0.00000000E+00  0.00000000E+00
  0.00000000E+00  0.00000000E+00  0.00000000E+00
  0.00000000E+00  0.00000000E+00  0.00000000E+00
  0.00000000E+00  0.00000000E+00  0.00000000E+00
  0.00000000E+00  0.00000000E+00  0.00000000E+00
  0.00000000E+00  0.00000000E+00  0.00000000E+00
  0.00000000E+00  0.00000000E+00  0.00000000E+00
  0.00000000E+00  0.00000000E+00  0.00000000E+00
  0.00000000E+00  0.00000000E+00  0.00000000E+00
  0.00000000E+00  0.00000000E+00  0.00000000E+00
  0.00000000E+00  0.00000000E+00  0.00000000E+00
  0.00000000E+00  0.00000000E+00  0.00000000E+00
  0.00000000E+00  0.00000000E+00  0.00000000E+00
  0.00000000E+00  0.00000000E+00  0.00000000E+00
  0.00000000E+00  0.00000000E+00  0.00000000E+00
  0.00000000E+00  0.00000000E+00  0.00000000E+00
  0.00000000E+00  0.00000000E+00  0.00000000E+00
  0.00000000E+00  0.00000000E+00  0.00000000E+00
  0.00000000E+00  0.00000000E+00  0.00000000E+00
  0.00000000E+00  0.00000000E+00  0.00000000E+00
  0.00000000E+00  0.00000000E+00  0.00000000E+00
  0.00000000E+00  0.00000000E+00  0.00000000E+00
  0.00000000E+00  0.00000000E+00  0.00000000E+00
  0.00000000E+00  0.00000000E+00  0.00000000E+00
  0.00000000E+00  0.00000000E+00  0.00000000E+00
  0.00000000E+00  0.00000000E+00  0.00000000E+00
  0.00000000E+00  0.00000000E+00  0.00000000E+00
  0.00000000E+00  0.00000000E+00  0.00000000E+00
  0.00000000E+00  0.00000000E+00  0.00000000E+00
  0.00000000E+00  0.00000000E+00  0.00000000E+00
  0.00000000E+00  0.00000000E+00  0.00000000E+00
  0.00000000E+00  0.00000000E+00  0.00000000E+00
  0.00000000E+00  0.00000000E+00  0.00000000E+00
  0.00000000E+00  0.00000000E+00  0.00000000E+00
  0.00000000E+00  0.00000000E+00  0.00000000E+00
  0.00000000E+00  0.00000000E+00  0.00000000E+00
  0.00000000E+00  0.00000000E+00  0.00000000E+00
  0.00000000E+00  0.00000000E+00  0.00000000E+00
  0.00000000E+00  0.00000000E+00  0.00000000E+00
  0.00000000E+00  0.00000000E+00  0.00000000E+00
  0.00000000E+00  0.00000000E+00  0.00000000E+00
  0.00000000E+00  0.00000000E+00  0.00000000E+00
  0.00000000E+00  0.00000000E+00  0.00000000E+00
  0.00000000E+00  0.00000000E+00  0.00000000E+00
  0.00000000E+00  0.00000000E+00  0.00000000E+00
  0.00000000E+00  0.00000000E+00  0.00000000E+00
  0.00000000E+00  0.00000000E+00  0.00000000E+00
  0.00000000E+00  0.00000000E+00  0.00000000E+00
  0.00000000E+00  0.00000000E+00  0.00000000E+00
  0.00000000E+00  0.00000000E+00  0.00000000E+00
  0.00000000E+00  0.00000000E+00  0.00000000E+00
  0.00000000E+00  0.00000000E+00  0.00000000E+00
  0.00000000E+00  0.00000000E+00  0.00000000E+00
  0.00000000E+00  0.00000000E+00  0.00000000E+00
  0.00000000E+00  0.00000000E+00  0.00000000E+00
  0.00000000E+00  0.00000000E+00  0.00000000E+00
  0.00000000E+00  0.00000000E+00  0.00000000E+00
  0.00000000E+00  0.00000000E+00  0.00000000E+00
  0.00000000E+00  0.00000000E+00  0.00000000E+00
  0.00000000E+00  0.00000000E+00  0.00000000E+00
  0.00000000E+00  0.00000000E+00  0.00000000E+00
  0.00000000E+00  0.00000000E+00  0.00000000E+00
  0.00000000E+00  0.00000000E+00  0.00000000E+00
  0.00000000E+00  0.00000000E+00  0.00000000E+00
  0.00000000E+00  0.00000000E+00  0.00000000E+00
  0.00000000E+00  0.00000000E+00  0.00000000E+00
  0.00000000E+00  0.00000000E+00  0.00000000E+00
  0.00000000E+00  0.00000000E+00  0.00000000E+00
  0.00000000E+00  0.00000000E+00  0.00000000E+00
  0.00000000E+00  0.00000000E+00  0.00000000E+00
  0.00000000E+00  0.00000000E+00  0.00000000E+00
  0.00000000E+00  0.00000000E+00  0.00000000E+00
  0.00000000E+00  0.00000000E+00  0.00000000E+00
  0.00000000E+00  0.00000000E+00  0.00000000E+00
  0.00000000E+00  0.00000000E+00  0.00000000E+00
  0.00000000E+00  0.00000000E+00  0.00000000E+00
  0.00000000E+00  0.00000000E+00  0.00000000E+00
  0.00000000E+00  0.00000000E+00  0.00000000E+00
  0.00000000E+00  0.00000000E+00  0.00000000E+00
  0.00000000E+00  0.00000000E+00  0.00000000E+00
  0.00000000E+00  0.00000000E+00  0.00000000E+00
  0.00000000E+00  0.00000000E+00  0.00000000E+00
  0.00000000E+00  0.00000000E+00  0.00000000E+00
  0.00000000E+00  0.00000000E+00  0.00000000E+00
  0.00000000E+00  0.00000000E+00  0.00000000E+00
  0.00000000E+00  0.00000000E+00  0.00000000E+00
  0.00000000E+00  0.00000000E+00  0.00000000E+00
  0.00000000E+00  0.00000000E+00  0.00000000E+00
  0.00000000E+00  0.00000000E+00  0.00000000E+00
  0.00000000E+00  0.00000000E+00  0.00000000E+00
  0.00000000E+00  0.00000000E+00  0.00000000E+00
  0.00000000E+00  0.00000000E+00  0.00000000E+00
  0.00000000E+00  0.00000000E+00  0.00000000E+00
  0.00000000E+00  0.00000000E+00  0.00000000E+00
  0.00000000E+00  0.00000000E+00  0.00000000E+00
  0.00000000E+00  0.00000000E+00  0.00000000E+00
  0.00000000E+00  0.00000000E+00  0.00000000E+00
  0.00000000E+00  0.00000000E+00  0.00000000E+00
  0.00000000E+00  0.00000000E+00  0.00000000E+00
  0.00000000E+00  0.00000000E+00  0.00000000E+00
  0.00000000E+00  0.00000000E+00  0.00000000E+00
  0.00000000E+00  0.00000000E+00  0.00000000E+00
  0.00000000E+00  0.00000000E+00  0.00000000E+00
  0.00000000E+00  0.00000000E+00  0.00000000E+00
  0.00000000E+00  0.00000000E+00  0.00000000E+00
  0.00000000E+00  0.00000000E+00  0.00000000E+00
  0.00000000E+00  0.00000000E+00  0.00000000E+00
  0.00000000E+00  0.00000000E+00  0.00000000E+00
  0.00000000E+00  0.00000000E+00  0.00000000E+00
  0.00000000E+00  0.00000000E+00  0.00000000E+00
  0.00000000E+00  0.00000000E+00  0.00000000E+00
  0.00000000E+00  0.00000000E+00  0.00000000E+00
