Au  O  N  C  H Au 
 1.0000000000000000
    10.1802357174756999    0.0000000000000000    0.0000000000000000
     5.0901178587378304    8.8163427478476297    0.0000000000000000
     0.0000000000000000    0.0000000000000000   20.0000000000000000
 Au  O   N   C   H   Au 
  24   2   4   8  10  24
Selective dynamics
Cartesian
  0.8483529764562930  1.4693904579745840  4.7580531428535799   T   T   T
  3.3934119058252574  0.0000000000000000  4.7580531428535799   T   T   T
  3.3934119058252148  2.9387809159492306  4.7580531428535799   T   T   T
  5.9384708351941429  1.4693904579745840  4.7580531428535799   T   T   T
  8.4835297645631069  0.0000000000000000  4.7580531428535799   T   T   T
  8.4835297645630661  2.9387809159492306  4.7580531428535799   T   T   T
  3.3934119058252081  5.8775618318983991  4.7580531428535799   T   T   T
  5.9384708351941722  4.4081713739238149  4.7580531428535799   T   T   T
  5.9384708351941295  7.3469522898730455  4.7580531428535799   T   T   T
  8.4835297645630590  5.8775618318983991  4.7580531428535799   T   T   T
 11.0285886939320221  4.4081713739238149  4.7580531428535799   T   T   T
 11.0285886939319795  7.3469522898730455  4.7580531428535799   T   T   T
  0.0000000000000000  0.0000000000000000  7.1656938429675048   T   T   T
  2.5450589293688854  1.4693904579745840  7.1656938429675048   T   T   T
  5.0901178587378801  2.9387809159492306  7.1656938429675048   T   T   T
  5.0901178587378499  0.0000000000000000  7.1656938429675048   T   T   T
  7.6351767881067358  1.4693904579745840  7.1656938429675048   T   T   T
 10.1802357174757283  2.9387809159492306  7.1656938429675048   T   T   T
  2.5450589293689152  4.4081713739238149  7.1656938429675048   T   T   T
  5.0901178587378002  5.8775618318983991  7.1656938429675048   T   T   T
  7.6351767881067953  7.3469522898730455  7.1656938429675048   T   T   T
  7.6351767881067651  4.4081713739238149  7.1656938429675048   T   T   T
 10.1802357174756501  5.8775618318983991  7.1656938429675048   T   T   T
 12.7252946468446453  7.3469522898730455  7.1656938429675048   T   T   T
  7.5171653970563659  3.7623560735425077 11.4760865592289267   T   T   T
  4.9936364317737940 -0.1930658202242195 11.4871402324055900   T   T   T
  4.0214839391657806  1.7258995586013437 10.6002349635155682   T   T   T
  5.1280201674537791  5.0240235776002891 10.1917088923910875   T   T   T
  6.2726600446992373  1.7692730691490191 11.4927945080043319   T   T   T
  3.2591620934017795  3.8989153156091385  9.7319617903339903   T   T   T
  5.3415034313571699  3.7417875878052875 10.6096037386234698   T   T   T
  4.1832130951116682  3.0750667068255257 10.3166438030932834   T   T   T
  6.4850220688675408  3.1472534535746566 11.2221868014819339   T   T   T
  5.0805136620037654  1.0089497788807362 11.2112296193876730   T   T   T
  3.8607266903306643  5.0689842315800471  9.6706981991851642   T   T   T
  2.7716913709805739  1.0512654803101411 10.2721476475199580   T   T   T
  6.0429360523197051  6.1376775165417801 10.2702681560084557   T   T   T
  7.3751933505305187  1.0485523977592817 12.1208978938925735   T   T   T
  3.4314397619178703  5.9744862083887202  9.2636159309770161   T   T   T
  1.9527338153536995  1.5411134530083614 10.8079607452742934   T   T   T
  2.7961698278503722 -0.0041653386092406 10.5546235608726455   T   T   T
  2.6018201553942326  1.1240219513209870  9.1934406548471248   T   T   T
  5.5701757985426799  7.0290963383813425  9.8500422685159652   T   T   T
  6.2885004518880345  6.3104623016074921 11.3209493844095537   T   T   T
  6.9395625198214583  5.8900929569794016  9.6967668799491697   T   T   T
  8.2450650510924675  1.6821465718512549 12.3073137921367177   T   T   T
  7.6659054098463297  0.2186723443653178 11.4688521857192960   T   T   T
  7.0232843233629358  0.6300891764627661 13.0692613363660293   T   T   T
  0.0000000000000000  0.0000000000000000  0.0000000000000000   F   F   F
  2.5450589293688854  1.4693904579745840  0.0000000000000000   F   F   F
  5.0901178587378801  2.9387809159492306  0.0000000000000000   F   F   F
  5.0901178587378499  0.0000000000000000  0.0000000000000000   F   F   F
  7.6351767881067358  1.4693904579745840  0.0000000000000000   F   F   F
 10.1802357174757283  2.9387809159492306  0.0000000000000000   F   F   F
  2.5450589293689152  4.4081713739238149  0.0000000000000000   F   F   F
  5.0901178587378002  5.8775618318983991  0.0000000000000000   F   F   F
  7.6351767881067953  7.3469522898730455  0.0000000000000000   F   F   F
  7.6351767881067651  4.4081713739238149  0.0000000000000000   F   F   F
 10.1802357174756501  5.8775618318983991  0.0000000000000000   F   F   F
 12.7252946468446453  7.3469522898730455  0.0000000000000000   F   F   F
  1.6967059529125925  0.0000000000000000  2.3995045699682298   F   F   F
  1.6967059529126223  2.9387809159492306  2.3995045699682298   F   F   F
  4.2417648822815508  1.4693904579745840  2.3995045699682298   F   F   F
  6.7868238116504429  0.0000000000000000  2.3995045699682298   F   F   F
  6.7868238116504722  2.9387809159492306  2.3995045699682298   F   F   F
  9.3318827410194007  1.4693904579745840  2.3995045699682298   F   F   F
  4.2417648822815082  4.4081713739238149  2.3995045699682298   F   F   F
  4.2417648822815375  7.3469522898730455  2.3995045699682298   F   F   F
  6.7868238116504660  5.8775618318983991  2.3995045699682298   F   F   F
  9.3318827410193581  4.4081713739238149  2.3995045699682298   F   F   F
  9.3318827410193883  7.3469522898730455  2.3995045699682298   F   F   F
 11.8769416703883159  5.8775618318983991  2.3995045699682298   F   F   F
