Ru  C  H  O                             
   1.00000000000000     
    18.9881999495999985    0.0000000000000000    0.0000000000000000
    -5.4251999855999999    9.3967220160000000    0.0000000000000000
     0.0000000000000000    0.0000000000000000   21.4363579450000010
   Ru   C    H    O 
    84    17    20     6
Selective dynamics
Direct
  0.0476185722258506  0.1666675061083325  0.2001739733964882   F   F   F
  0.0476185722258506  0.4166675061083325  0.2001739733964882   F   F   F
  0.0476185722258506  0.6666675061083325  0.2001739733964882   F   F   F
  0.0476185722258506  0.9166675061083325  0.2001739733964882   F   F   F
  0.1904757150829965  0.1666675061083325  0.2001739733964882   F   F   F
  0.1904757150829965  0.4166675061083325  0.2001739733964882   F   F   F
  0.1904757150829965  0.6666675061083325  0.2001739733964882   F   F   F
  0.1904757150829965  0.9166675061083325  0.2001739733964882   F   F   F
  0.3333328579401353  0.1666675061083325  0.2001739733964882   F   F   F
  0.3333328579401353  0.4166675061083325  0.2001739733964882   F   F   F
  0.3333328579401353  0.6666675061083325  0.2001739733964882   F   F   F
  0.3333328579401353  0.9166675061083325  0.2001739733964882   F   F   F
  0.4761900007972812  0.1666675061083325  0.2001739733964882   F   F   F
  0.4761900007972812  0.4166675061083325  0.2001739733964882   F   F   F
  0.4761900007972812  0.6666675061083325  0.2001739733964882   F   F   F
  0.4761900007972812  0.9166675061083325  0.2001739733964882   F   F   F
  0.6190471436544200  0.1666675061083325  0.2001739733964882   F   F   F
  0.6190471436544200  0.4166675061083325  0.2001739733964882   F   F   F
  0.6190471436544200  0.6666675061083325  0.2001739733964882   F   F   F
  0.6190471436544200  0.9166675061083325  0.2001739733964882   F   F   F
  0.7619042865115659  0.1666675061083325  0.2001739733964882   F   F   F
  0.7619042865115659  0.4166675061083325  0.2001739733964882   F   F   F
  0.7619042865115659  0.6666675061083325  0.2001739733964882   F   F   F
  0.7619042865115659  0.9166675061083325  0.2001739733964882   F   F   F
  0.9047614293687047  0.1666675061083325  0.2001739733964882   F   F   F
  0.9047614293687047  0.4166675061083325  0.2001739733964882   F   F   F
  0.9047614293687047  0.6666675061083325  0.2001739733964882   F   F   F
  0.9047614293687047  0.9166675061083325  0.2001739733964882   F   F   F
  0.0952385748978628  0.0833325013410686  0.1000936681737272   F   F   F
  0.0952385748978628  0.3333325013410686  0.1000936681737272   F   F   F
  0.0952385748978628  0.5833325013410686  0.1000936681737272   F   F   F
  0.0952385748978628  0.8333325013410686  0.1000936681737272   F   F   F
  0.2380957177550087  0.0833325013410686  0.1000936681737272   F   F   F
  0.2380957177550087  0.3333325013410686  0.1000936681737272   F   F   F
  0.2380957177550087  0.5833325013410686  0.1000936681737272   F   F   F
  0.2380957177550087  0.8333325013410686  0.1000936681737272   F   F   F
  0.3809528606121475  0.0833325013410686  0.1000936681737272   F   F   F
  0.3809528606121475  0.3333325013410686  0.1000936681737272   F   F   F
  0.3809528606121475  0.5833325013410686  0.1000936681737272   F   F   F
  0.3809528606121475  0.8333325013410686  0.1000936681737272   F   F   F
  0.5238100034692934  0.0833325013410686  0.1000936681737272   F   F   F
  0.5238100034692934  0.3333325013410686  0.1000936681737272   F   F   F
  0.5238100034692934  0.5833325013410686  0.1000936681737272   F   F   F
  0.5238100034692934  0.8333325013410686  0.1000936681737272   F   F   F
  0.6666671463264322  0.0833325013410686  0.1000936681737272   F   F   F
  0.6666671463264322  0.3333325013410686  0.1000936681737272   F   F   F
  0.6666671463264322  0.5833325013410686  0.1000936681737272   F   F   F
  0.6666671463264322  0.8333325013410686  0.1000936681737272   F   F   F
  0.8095242891835781  0.0833325013410686  0.1000936681737272   F   F   F
  0.8095242891835781  0.3333325013410686  0.1000936681737272   F   F   F
  0.8095242891835781  0.5833325013410686  0.1000936681737272   F   F   F
  0.8095242891835781  0.8333325013410686  0.1000936681737272   F   F   F
  0.9523814320407240  0.0833325013410686  0.1000936681737272   F   F   F
  0.9523814320407240  0.3333325013410686  0.1000936681737272   F   F   F
  0.9523814320407240  0.5833325013410686  0.1000936681737272   F   F   F
  0.9523814320407240  0.8333325013410686  0.1000936681737272   F   F   F
  0.0476185722258506  0.1666675061083325  0.0000000214122196   F   F   F
  0.0476185722258506  0.4166675061083325  0.0000000214122196   F   F   F
  0.0476185722258506  0.6666675061083325  0.0000000214122196   F   F   F
  0.0476185722258506  0.9166675061083325  0.0000000214122196   F   F   F
  0.1904757150829965  0.1666675061083325  0.0000000214122196   F   F   F
  0.1904757150829965  0.4166675061083325  0.0000000214122196   F   F   F
  0.1904757150829965  0.6666675061083325  0.0000000214122196   F   F   F
  0.1904757150829965  0.9166675061083325  0.0000000214122196   F   F   F
  0.3333328579401353  0.1666675061083325  0.0000000214122196   F   F   F
  0.3333328579401353  0.4166675061083325  0.0000000214122196   F   F   F
  0.3333328579401353  0.6666675061083325  0.0000000214122196   F   F   F
  0.3333328579401353  0.9166675061083325  0.0000000214122196   F   F   F
  0.4761900007972812  0.1666675061083325  0.0000000214122196   F   F   F
  0.4761900007972812  0.4166675061083325  0.0000000214122196   F   F   F
  0.4761900007972812  0.6666675061083325  0.0000000214122196   F   F   F
  0.4761900007972812  0.9166675061083325  0.0000000214122196   F   F   F
  0.6190471436544200  0.1666675061083325  0.0000000214122196   F   F   F
  0.6190471436544200  0.4166675061083325  0.0000000214122196   F   F   F
  0.6190471436544200  0.6666675061083325  0.0000000214122196   F   F   F
  0.6190471436544200  0.9166675061083325  0.0000000214122196   F   F   F
  0.7619042865115659  0.1666675061083325  0.0000000214122196   F   F   F
  0.7619042865115659  0.4166675061083325  0.0000000214122196   F   F   F
  0.7619042865115659  0.6666675061083325  0.0000000214122196   F   F   F
  0.7619042865115659  0.9166675061083325  0.0000000214122196   F   F   F
  0.9047614293687047  0.1666675061083325  0.0000000214122196   F   F   F
  0.9047614293687047  0.4166675061083325  0.0000000214122196   F   F   F
  0.9047614293687047  0.6666675061083325  0.0000000214122196   F   F   F
  0.9047614293687047  0.9166675061083325  0.0000000214122196   F   F   F
  0.1969963224828474  0.1805493366273609  0.3009014755917653   T   T   T
  0.2856437747212877  0.2628323544817748  0.2961513675709793   T   T   T
  0.3297322675363448  0.4173699673374657  0.3014483899418439   T   T   T
  0.2822295997791595  0.4883140649688485  0.2943220611721249   T   T   T
  0.1943632593787682  0.4114620348506240  0.2998547510615008   T   T   T
  0.1540740531859304  0.2593095231023785  0.2991561764095875   T   T   T
  0.1922925701905552  0.9746216806860061  0.3486414309238597   T   T   T
  0.4088912616660584  0.5036878609657024  0.3374287585812896   T   T   T
  0.4584069182853217  0.4336251511387236  0.3575938556716317   T   T   T
  0.5262057665095358  0.3216400591649138  0.2978624422796535   T   T   T
  0.4946119426703501  0.1707018556684995  0.3009276578765975   T   T   T
  0.6124952786925336  0.4251442231703925  0.3021924673398583   T   T   T
  0.5527420789291448  0.1206772094579337  0.3004473549970632   T   T   T
  0.6680439637636806  0.3711611256899394  0.2968088746022595   T   T   T
  0.6380669959960560  0.2184544040683721  0.3004931160512967   T   T   T
  0.4212741250141191  0.3226794422573022  0.4101301762423096   T   T   T
  0.7138628291668953  0.6416767200467932  0.3504551449495623   T   T   T
  0.3179302998674953  0.2066516937153789  0.3093964787969085   T   T   T
  0.3125044158729119  0.6006923149575415  0.3087424314232682   T   T   T
  0.1627231931424722  0.4621019793705373  0.3205371677508841   T   T   T
  0.0554837307481149  0.0872690578419056  0.3208774300370519   T   T   T
  0.2487199212344693  0.0329260781155686  0.3762278606064846   T   T   T
  0.1476578788431288  0.8792014051683813  0.3736513724277693   T   T   T
  0.2078123207219368  0.9415683548740279  0.3035974303346478   T   T   T
  0.4495529118223185  0.5983890732483825  0.3083270856636352   T   T   T
  0.5181731873927640  0.5183470715923398  0.3735563476100670   T   T   T
  0.4346149040426398  0.6517944805899663  0.4017197829606111   T   T   T
  0.4346381431451748  0.1049884808897035  0.3215705541388428   T   T   T
  0.5311856212460417  0.0108627837933056  0.3149380181135437   T   T   T
  0.7312179691809957  0.4420437112278884  0.3111530112901776   T   T   T
  0.6798110955240652  0.1848502843259094  0.3178959500599189   T   T   T
  0.3561527465316431  0.2475944871793165  0.4012704643479387   T   T   T
  0.4533748367228146  0.2617505934577817  0.4112064819022941   T   T   T
  0.4084251800784516  0.4492810226282327  0.4655901325412197   T   T   T
  0.7572998233424111  0.6726243848293390  0.3106639835772103   T   T   T
  0.7173171353648435  0.7384583666351008  0.3692677964837082   T   T   T
  0.7299056993884930  0.5869766055049500  0.3863064677353785   T   T   T
  0.0719084288140420  0.1877284275825184  0.3128733196852871   T   T   T
  0.1554901301268583  0.0590448971825395  0.3386177936683883   T   T   T
  0.4691257901921452  0.3671858070673972  0.3017477944639299   T   T   T
  0.3906322637176540  0.5546383974089554  0.3950316289503886   T   T   T
  0.4330709715529858  0.3889839173187229  0.4694064605666043   T   T   T
  0.6315649653718080  0.5535224623477346  0.3303330923307790   T   T   T
 
  0.00000000E+00  0.00000000E+00  0.00000000E+00
  0.00000000E+00  0.00000000E+00  0.00000000E+00
  0.00000000E+00  0.00000000E+00  0.00000000E+00
  0.00000000E+00  0.00000000E+00  0.00000000E+00
  0.00000000E+00  0.00000000E+00  0.00000000E+00
  0.00000000E+00  0.00000000E+00  0.00000000E+00
  0.00000000E+00  0.00000000E+00  0.00000000E+00
  0.00000000E+00  0.00000000E+00  0.00000000E+00
  0.00000000E+00  0.00000000E+00  0.00000000E+00
  0.00000000E+00  0.00000000E+00  0.00000000E+00
  0.00000000E+00  0.00000000E+00  0.00000000E+00
  0.00000000E+00  0.00000000E+00  0.00000000E+00
  0.00000000E+00  0.00000000E+00  0.00000000E+00
  0.00000000E+00  0.00000000E+00  0.00000000E+00
  0.00000000E+00  0.00000000E+00  0.00000000E+00
  0.00000000E+00  0.00000000E+00  0.00000000E+00
  0.00000000E+00  0.00000000E+00  0.00000000E+00
  0.00000000E+00  0.00000000E+00  0.00000000E+00
  0.00000000E+00  0.00000000E+00  0.00000000E+00
  0.00000000E+00  0.00000000E+00  0.00000000E+00
  0.00000000E+00  0.00000000E+00  0.00000000E+00
  0.00000000E+00  0.00000000E+00  0.00000000E+00
  0.00000000E+00  0.00000000E+00  0.00000000E+00
  0.00000000E+00  0.00000000E+00  0.00000000E+00
  0.00000000E+00  0.00000000E+00  0.00000000E+00
  0.00000000E+00  0.00000000E+00  0.00000000E+00
  0.00000000E+00  0.00000000E+00  0.00000000E+00
  0.00000000E+00  0.00000000E+00  0.00000000E+00
  0.00000000E+00  0.00000000E+00  0.00000000E+00
  0.00000000E+00  0.00000000E+00  0.00000000E+00
  0.00000000E+00  0.00000000E+00  0.00000000E+00
  0.00000000E+00  0.00000000E+00  0.00000000E+00
  0.00000000E+00  0.00000000E+00  0.00000000E+00
  0.00000000E+00  0.00000000E+00  0.00000000E+00
  0.00000000E+00  0.00000000E+00  0.00000000E+00
  0.00000000E+00  0.00000000E+00  0.00000000E+00
  0.00000000E+00  0.00000000E+00  0.00000000E+00
  0.00000000E+00  0.00000000E+00  0.00000000E+00
  0.00000000E+00  0.00000000E+00  0.00000000E+00
  0.00000000E+00  0.00000000E+00  0.00000000E+00
  0.00000000E+00  0.00000000E+00  0.00000000E+00
  0.00000000E+00  0.00000000E+00  0.00000000E+00
  0.00000000E+00  0.00000000E+00  0.00000000E+00
  0.00000000E+00  0.00000000E+00  0.00000000E+00
  0.00000000E+00  0.00000000E+00  0.00000000E+00
  0.00000000E+00  0.00000000E+00  0.00000000E+00
  0.00000000E+00  0.00000000E+00  0.00000000E+00
  0.00000000E+00  0.00000000E+00  0.00000000E+00
  0.00000000E+00  0.00000000E+00  0.00000000E+00
  0.00000000E+00  0.00000000E+00  0.00000000E+00
  0.00000000E+00  0.00000000E+00  0.00000000E+00
  0.00000000E+00  0.00000000E+00  0.00000000E+00
  0.00000000E+00  0.00000000E+00  0.00000000E+00
  0.00000000E+00  0.00000000E+00  0.00000000E+00
  0.00000000E+00  0.00000000E+00  0.00000000E+00
  0.00000000E+00  0.00000000E+00  0.00000000E+00
  0.00000000E+00  0.00000000E+00  0.00000000E+00
  0.00000000E+00  0.00000000E+00  0.00000000E+00
  0.00000000E+00  0.00000000E+00  0.00000000E+00
  0.00000000E+00  0.00000000E+00  0.00000000E+00
  0.00000000E+00  0.00000000E+00  0.00000000E+00
  0.00000000E+00  0.00000000E+00  0.00000000E+00
  0.00000000E+00  0.00000000E+00  0.00000000E+00
  0.00000000E+00  0.00000000E+00  0.00000000E+00
  0.00000000E+00  0.00000000E+00  0.00000000E+00
  0.00000000E+00  0.00000000E+00  0.00000000E+00
  0.00000000E+00  0.00000000E+00  0.00000000E+00
  0.00000000E+00  0.00000000E+00  0.00000000E+00
  0.00000000E+00  0.00000000E+00  0.00000000E+00
  0.00000000E+00  0.00000000E+00  0.00000000E+00
  0.00000000E+00  0.00000000E+00  0.00000000E+00
  0.00000000E+00  0.00000000E+00  0.00000000E+00
  0.00000000E+00  0.00000000E+00  0.00000000E+00
  0.00000000E+00  0.00000000E+00  0.00000000E+00
  0.00000000E+00  0.00000000E+00  0.00000000E+00
  0.00000000E+00  0.00000000E+00  0.00000000E+00
  0.00000000E+00  0.00000000E+00  0.00000000E+00
  0.00000000E+00  0.00000000E+00  0.00000000E+00
  0.00000000E+00  0.00000000E+00  0.00000000E+00
  0.00000000E+00  0.00000000E+00  0.00000000E+00
  0.00000000E+00  0.00000000E+00  0.00000000E+00
  0.00000000E+00  0.00000000E+00  0.00000000E+00
  0.00000000E+00  0.00000000E+00  0.00000000E+00
  0.00000000E+00  0.00000000E+00  0.00000000E+00
  0.00000000E+00  0.00000000E+00  0.00000000E+00
  0.00000000E+00  0.00000000E+00  0.00000000E+00
  0.00000000E+00  0.00000000E+00  0.00000000E+00
  0.00000000E+00  0.00000000E+00  0.00000000E+00
  0.00000000E+00  0.00000000E+00  0.00000000E+00
  0.00000000E+00  0.00000000E+00  0.00000000E+00
  0.00000000E+00  0.00000000E+00  0.00000000E+00
  0.00000000E+00  0.00000000E+00  0.00000000E+00
  0.00000000E+00  0.00000000E+00  0.00000000E+00
  0.00000000E+00  0.00000000E+00  0.00000000E+00
  0.00000000E+00  0.00000000E+00  0.00000000E+00
  0.00000000E+00  0.00000000E+00  0.00000000E+00
  0.00000000E+00  0.00000000E+00  0.00000000E+00
  0.00000000E+00  0.00000000E+00  0.00000000E+00
  0.00000000E+00  0.00000000E+00  0.00000000E+00
  0.00000000E+00  0.00000000E+00  0.00000000E+00
  0.00000000E+00  0.00000000E+00  0.00000000E+00
  0.00000000E+00  0.00000000E+00  0.00000000E+00
  0.00000000E+00  0.00000000E+00  0.00000000E+00
  0.00000000E+00  0.00000000E+00  0.00000000E+00
  0.00000000E+00  0.00000000E+00  0.00000000E+00
  0.00000000E+00  0.00000000E+00  0.00000000E+00
  0.00000000E+00  0.00000000E+00  0.00000000E+00
  0.00000000E+00  0.00000000E+00  0.00000000E+00
  0.00000000E+00  0.00000000E+00  0.00000000E+00
  0.00000000E+00  0.00000000E+00  0.00000000E+00
  0.00000000E+00  0.00000000E+00  0.00000000E+00
  0.00000000E+00  0.00000000E+00  0.00000000E+00
  0.00000000E+00  0.00000000E+00  0.00000000E+00
  0.00000000E+00  0.00000000E+00  0.00000000E+00
  0.00000000E+00  0.00000000E+00  0.00000000E+00
  0.00000000E+00  0.00000000E+00  0.00000000E+00
  0.00000000E+00  0.00000000E+00  0.00000000E+00
  0.00000000E+00  0.00000000E+00  0.00000000E+00
  0.00000000E+00  0.00000000E+00  0.00000000E+00
  0.00000000E+00  0.00000000E+00  0.00000000E+00
  0.00000000E+00  0.00000000E+00  0.00000000E+00
  0.00000000E+00  0.00000000E+00  0.00000000E+00
  0.00000000E+00  0.00000000E+00  0.00000000E+00
  0.00000000E+00  0.00000000E+00  0.00000000E+00
  0.00000000E+00  0.00000000E+00  0.00000000E+00
  0.00000000E+00  0.00000000E+00  0.00000000E+00
  0.00000000E+00  0.00000000E+00  0.00000000E+00
