Ag  C  N  H                             
   1.00000000000000     
    17.3505005835000006    0.0000000000000000    0.0000000000000000
    -8.6752502918999994   15.0259742738999993    0.0000000000000000
     0.0000000000000000    0.0000000000000000   22.0832996367999996
   Ag   C    N    H 
   144     7     2    10
Selective dynamics
Direct
  0.0000000000000000  0.0000000000000000  0.0000000000000000   F   F   F
  0.9999999999987850  0.1666666666699967  0.0000000000000000   F   F   F
  0.1666666666683270  0.1666666666699967  0.0000000000000000   F   F   F
  0.1666666666695491  0.0000000000000000  0.0000000000000000   F   F   F
  0.0000000000000000  0.3333333333333357  0.0000000000000000   F   F   F
  0.0000000000045475  0.5000000000033253  0.0000000000000000   F   F   F
  0.1666666666683270  0.5000000000033253  0.0000000000000000   F   F   F
  0.1666666666637866  0.3333333333333357  0.0000000000000000   F   F   F
  0.0000000000000000  0.6666666666666643  0.0000000000000000   F   F   F
  0.9999999999954525  0.8333333333300033  0.0000000000000000   F   F   F
  0.1666666666650016  0.8333333333300033  0.0000000000000000   F   F   F
  0.1666666666637866  0.6666666666666643  0.0000000000000000   F   F   F
  0.3333333333333357  0.0000000000000000  0.0000000000000000   F   F   F
  0.3333333333321136  0.1666666666699967  0.0000000000000000   F   F   F
  0.5000000000016627  0.1666666666699967  0.0000000000000000   F   F   F
  0.5000000000028848  0.0000000000000000  0.0000000000000000   F   F   F
  0.3333333333333357  0.3333333333333357  0.0000000000000000   F   F   F
  0.3333333333321136  0.5000000000033253  0.0000000000000000   F   F   F
  0.5000000000016627  0.5000000000033253  0.0000000000000000   F   F   F
  0.5000000000028848  0.3333333333333357  0.0000000000000000   F   F   F
  0.3333333333333357  0.6666666666666643  0.0000000000000000   F   F   F
  0.3333333333287882  0.8333333333300033  0.0000000000000000   F   F   F
  0.4999999999983373  0.8333333333300033  0.0000000000000000   F   F   F
  0.5000000000028848  0.6666666666666643  0.0000000000000000   F   F   F
  0.6666666666666643  0.0000000000000000  0.0000000000000000   F   F   F
  0.6666666666654493  0.1666666666699967  0.0000000000000000   F   F   F
  0.8333333333349984  0.1666666666699967  0.0000000000000000   F   F   F
  0.8333333333362134  0.0000000000000000  0.0000000000000000   F   F   F
  0.6666666666666643  0.3333333333333357  0.0000000000000000   F   F   F
  0.6666666666654493  0.5000000000033253  0.0000000000000000   F   F   F
  0.8333333333349984  0.5000000000033253  0.0000000000000000   F   F   F
  0.8333333333304509  0.3333333333333357  0.0000000000000000   F   F   F
  0.6666666666666643  0.6666666666666643  0.0000000000000000   F   F   F
  0.6666666666621239  0.8333333333300033  0.0000000000000000   F   F   F
  0.8333333333316730  0.8333333333300033  0.0000000000000000   F   F   F
  0.8333333333362134  0.6666666666666643  0.0000000000000000   F   F   F
  0.2222233413339652  0.1111100016655797  0.1069199959984815   F   F   F
  0.2222233413333825  0.2777766586656512  0.1069199959984815   F   F   F
  0.0555566649984058  0.2777766586656512  0.1069199959984815   F   F   F
  0.0555566649989956  0.1111100016655797  0.1069199959984815   F   F   F
  0.2222233413339652  0.4444433349989154  0.1069199959984815   F   F   F
  0.2222233413333825  0.6111099919989869  0.1069199959984815   F   F   F
  0.0555566649984058  0.6111099919989869  0.1069199959984815   F   F   F
  0.0555566649989956  0.4444433349989154  0.1069199959984815   F   F   F
  0.2222233413339652  0.7777766683322440  0.1069199959984815   F   F   F
  0.2222233413333825  0.9444433253323226  0.1069199959984815   F   F   F
  0.0555566649984058  0.9444433253323226  0.1069199959984815   F   F   F
  0.0555566649989956  0.7777766683322440  0.1069199959984815   F   F   F
  0.5555566746673009  0.1111100016655797  0.1069199959984815   F   F   F
  0.5555566746667182  0.2777766586656512  0.1069199959984815   F   F   F
  0.3888899983317415  0.2777766586656512  0.1069199959984815   F   F   F
  0.3888899983323242  0.1111100016655797  0.1069199959984815   F   F   F
  0.5555566746673009  0.4444433349989154  0.1069199959984815   F   F   F
  0.5555566746667182  0.6111099919989869  0.1069199959984815   F   F   F
  0.3888899983317415  0.6111099919989869  0.1069199959984815   F   F   F
  0.3888899983323242  0.4444433349989154  0.1069199959984815   F   F   F
  0.5555566746673009  0.7777766683322440  0.1069199959984815   F   F   F
  0.5555566746667182  0.9444433253323226  0.1069199959984815   F   F   F
  0.3888899983317415  0.9444433253323226  0.1069199959984815   F   F   F
  0.3888899983323242  0.7777766683322440  0.1069199959984815   F   F   F
  0.8888900080006366  0.1111100016655797  0.1069199959984815   F   F   F
  0.8888900080000539  0.2777766586656512  0.1069199959984815   F   F   F
  0.7222233316650772  0.2777766586656512  0.1069199959984815   F   F   F
  0.7222233316656599  0.1111100016655797  0.1069199959984815   F   F   F
  0.8888900080006366  0.4444433349989154  0.1069199959984815   F   F   F
  0.8888900080000539  0.6111099919989869  0.1069199959984815   F   F   F
  0.7222233316650772  0.6111099919989869  0.1069199959984815   F   F   F
  0.7222233316656599  0.4444433349989154  0.1069199959984815   F   F   F
  0.8888900080006366  0.7777766683322440  0.1069199959984815   F   F   F
  0.8888900080000539  0.9444433253323226  0.1069199959984815   F   F   F
  0.7222233316650772  0.9444433253323226  0.1069199959984815   F   F   F
  0.7222233316656599  0.7777766683322440  0.1069199959984815   F   F   F
  0.1109030396018035  0.2220307156270111  0.2151312099813004   T   T   T
  0.1110224240350804  0.0554597934981102  0.2153101277187485   T   T   T
  0.2775672892376455  0.0551639460371312  0.2151431933944326   T   T   T
  0.2774008465601426  0.2216246595713820  0.2144621121061658   T   T   T
  0.1110957419087852  0.5555796117425739  0.2150606445101407   T   T   T
  0.1109046047487057  0.3887544938824001  0.2149080234204304   T   T   T
  0.2771852230161957  0.3883983861755285  0.2140572008671173   T   T   T
  0.2773786025980304  0.5556048320402349  0.2141287421230605   T   T   T
  0.1111225595910045  0.8888958361430662  0.2151553155366290   T   T   T
  0.1111601505605638  0.7222629959021178  0.2151150169038790   T   T   T
  0.2776499107996198  0.7223722887319780  0.2145827784917328   T   T   T
  0.2777871050842524  0.8888642888893953  0.2153331797747814   T   T   T
  0.4440592880653492  0.2214390505811996  0.2142997621631065   T   T   T
  0.4444076626873541  0.0554137890796817  0.2152486210953344   T   T   T
  0.6111330314640072  0.0555169460182837  0.2152699577943020   T   T   T
  0.6110528173014544  0.2219570152076812  0.2149648976710179   T   T   T
  0.4444541298929522  0.5556863060800704  0.2146994819398728   T   T   T
  0.4441446425031906  0.3884531807959479  0.2142026384290389   T   T   T
  0.6110938823660760  0.3883333929968772  0.2139724064442502   T   T   T
  0.6109576881398585  0.5557114501715535  0.2141497101221841   T   T   T
  0.4444408681343330  0.8888892844162495  0.2151185917653763   T   T   T
  0.4444907033621159  0.7222706218736149  0.2147529794025714   T   T   T
  0.6111664668576376  0.7223644832311059  0.2148368299080024   T   T   T
  0.6111155609325353  0.8889500172005589  0.2150563152634693   T   T   T
  0.7777726548305858  0.2222064984900870  0.2151809394876343   T   T   T
  0.7777750543629434  0.0555917268305520  0.2152242454678150   T   T   T
  0.9444099414912849  0.0555604245437681  0.2152425775820435   T   T   T
  0.9444067088853529  0.2222120511396639  0.2152216910804634   T   T   T
  0.7784399268671824  0.5558511350305206  0.2140282526309573   T   T   T
  0.7778329198192894  0.3888250511744942  0.2148861458201803   T   T   T
  0.9444242499403559  0.3888753165867683  0.2151547477256221   T   T   T
  0.9446059092501381  0.5555773971554658  0.2148682090885838   T   T   T
  0.7778379132983093  0.8889905526698755  0.2149554926181147   T   T   T
  0.7780053689662559  0.7223797556113063  0.2145543021150026   T   T   T
  0.9448012415717040  0.7224979526192417  0.2147413158541819   T   T   T
  0.9444922790172866  0.8889424623616308  0.2150879772152631   T   T   T
  0.0000144259394390  0.0000065391793173  0.3246107955511100   T   T   T
 -0.0000547922929813  0.1666545986468307  0.3245850733956295   T   T   T
  0.1666693429986476  0.1666483791481585  0.3246107281262958   T   T   T
  0.1666806340420805  0.0000034454949932  0.3246060168083502   T   T   T
 -0.0000979157210133  0.3332913572436083  0.3245375127564024   T   T   T
  0.0002230343281540  0.5000548657014340  0.3243173606305452   T   T   T
  0.1665484396690518  0.4998358104707030  0.3239410370233361   T   T   T
  0.1662708020614867  0.3331690867015094  0.3243200629878476   T   T   T
  0.0001993872733846  0.6667030567983483  0.3239400126364100   T   T   T
  0.0002580495681684  0.8334253521410330  0.3242850832533906   T   T   T
  0.1667588159438429  0.8333194330939184  0.3245529824197157   T   T   T
  0.1668911968696976  0.6666494915231530  0.3243347799451477   T   T   T
  0.3333389179831087 -0.0000120089164249  0.3246012233106634   T   T   T
  0.3331377960779809  0.1665755259186301  0.3239363366070030   T   T   T
  0.4999101298877669  0.1663574279016435  0.3243432829848032   T   T   T
  0.4999428744763451 -0.0002080803732217  0.3244796667381096   T   T   T
  0.3324477847882748  0.3326376891901914  0.3224403220780536   T   T   T
  0.3323045891917884  0.4993030773228502  0.3214350096175561   T   T   T
  0.4998093662789029  0.4991744782860945  0.3218614449437059   T   T   T
  0.4997968947164104  0.3322546625948588  0.3220239853473956   T   T   T
  0.3332421018573654  0.6667025992716779  0.3228712122295370   T   T   T
  0.3333790944104252  0.8331691767625624  0.3244680252670422   T   T   T
  0.4999203559645017  0.8330488991519421  0.3242788308669722   T   T   T
  0.5005735898688000  0.6671177937766194  0.3237073948268891   T   T   T
  0.6666456536382664  0.0000013681613824  0.3245827262226468   T   T   T
  0.6666429466046909  0.1666301132440315  0.3245948551192930   T   T   T
  0.8332795851358076  0.1666961664671799  0.3245701707810966   T   T   T
  0.8334567000700116  0.0001200553723784  0.3245225326144227   T   T   T
  0.6665736353473350  0.3330876666441294  0.3239083325477194   T   T   T
  0.6674588823623062  0.4999550260670773  0.3204437583030599   T   T   T
  0.8335805734852746  0.5000468251740157  0.3238170012334791   T   T   T
  0.8332777993180339  0.3334351191918445  0.3242132878730926   T   T   T
  0.6673095353209804  0.6668632177279623  0.3228446307616500   T   T   T
  0.6670333971485555  0.8337719238713465  0.3239569761804585   T   T   T
  0.8335093906465720  0.8333612779756986  0.3239402022283981   T   T   T
  0.8337368886148132  0.6668128860234454  0.3235199104200281   T   T   T
  0.6370370033370869  0.4814148456477077  0.4720366215840012   T   T   T
  0.5650315327004622  0.5047801791661176  0.4653723423351157   T   T   T
  0.5842090028408716  0.5932053719220128  0.4625793430484676   T   T   T
  0.5180802211970876  0.6168577291561618  0.4603436724173651   T   T   T
  0.4277292121920180  0.5493935393810002  0.4613382864292154   T   T   T
  0.4068452972612695  0.4599170108525043  0.4612948913188457   T   T   T
  0.4739723733804604  0.4369723222143292  0.4644520026291673   T   T   T
  0.4509822393163752  0.3485102326373564  0.4688428163027391   T   T   T
  0.3608181157406409  0.5707354863597136  0.4642902804014534   T   T   T
  0.6540038440929026  0.6458837037590783  0.4630520284822575   T   T   T
  0.5358430363995639  0.6867288867245794  0.4609208733934277   T   T   T
  0.3371353423173213  0.4070988786737809  0.4616883692297121   T   T   T
  0.4981967116715825  0.3325673287813682  0.4579331090537588   T   T   T
  0.3890279354978839  0.3026196616183719  0.4545159184945310   T   T   T
  0.3764098442823908  0.6322065788285800  0.4490315598479094   T   T   T
  0.2986193531884024  0.5226779486712873  0.4518412752539749   T   T   T
  0.6338878862213849  0.4510640139398766  0.5165469980117009   T   T   T
  0.7031732828387741  0.5406849943983776  0.4670166084006258   T   T   T
  0.6318717157764855  0.4327021106941756  0.4374683581892037   T   T   T
 
  0.00000000E+00  0.00000000E+00  0.00000000E+00
  0.00000000E+00  0.00000000E+00  0.00000000E+00
  0.00000000E+00  0.00000000E+00  0.00000000E+00
  0.00000000E+00  0.00000000E+00  0.00000000E+00
  0.00000000E+00  0.00000000E+00  0.00000000E+00
  0.00000000E+00  0.00000000E+00  0.00000000E+00
  0.00000000E+00  0.00000000E+00  0.00000000E+00
  0.00000000E+00  0.00000000E+00  0.00000000E+00
  0.00000000E+00  0.00000000E+00  0.00000000E+00
  0.00000000E+00  0.00000000E+00  0.00000000E+00
  0.00000000E+00  0.00000000E+00  0.00000000E+00
  0.00000000E+00  0.00000000E+00  0.00000000E+00
  0.00000000E+00  0.00000000E+00  0.00000000E+00
  0.00000000E+00  0.00000000E+00  0.00000000E+00
  0.00000000E+00  0.00000000E+00  0.00000000E+00
  0.00000000E+00  0.00000000E+00  0.00000000E+00
  0.00000000E+00  0.00000000E+00  0.00000000E+00
  0.00000000E+00  0.00000000E+00  0.00000000E+00
  0.00000000E+00  0.00000000E+00  0.00000000E+00
  0.00000000E+00  0.00000000E+00  0.00000000E+00
  0.00000000E+00  0.00000000E+00  0.00000000E+00
  0.00000000E+00  0.00000000E+00  0.00000000E+00
  0.00000000E+00  0.00000000E+00  0.00000000E+00
  0.00000000E+00  0.00000000E+00  0.00000000E+00
  0.00000000E+00  0.00000000E+00  0.00000000E+00
  0.00000000E+00  0.00000000E+00  0.00000000E+00
  0.00000000E+00  0.00000000E+00  0.00000000E+00
  0.00000000E+00  0.00000000E+00  0.00000000E+00
  0.00000000E+00  0.00000000E+00  0.00000000E+00
  0.00000000E+00  0.00000000E+00  0.00000000E+00
  0.00000000E+00  0.00000000E+00  0.00000000E+00
  0.00000000E+00  0.00000000E+00  0.00000000E+00
  0.00000000E+00  0.00000000E+00  0.00000000E+00
  0.00000000E+00  0.00000000E+00  0.00000000E+00
  0.00000000E+00  0.00000000E+00  0.00000000E+00
  0.00000000E+00  0.00000000E+00  0.00000000E+00
  0.00000000E+00  0.00000000E+00  0.00000000E+00
  0.00000000E+00  0.00000000E+00  0.00000000E+00
  0.00000000E+00  0.00000000E+00  0.00000000E+00
  0.00000000E+00  0.00000000E+00  0.00000000E+00
  0.00000000E+00  0.00000000E+00  0.00000000E+00
  0.00000000E+00  0.00000000E+00  0.00000000E+00
  0.00000000E+00  0.00000000E+00  0.00000000E+00
  0.00000000E+00  0.00000000E+00  0.00000000E+00
  0.00000000E+00  0.00000000E+00  0.00000000E+00
  0.00000000E+00  0.00000000E+00  0.00000000E+00
  0.00000000E+00  0.00000000E+00  0.00000000E+00
  0.00000000E+00  0.00000000E+00  0.00000000E+00
  0.00000000E+00  0.00000000E+00  0.00000000E+00
  0.00000000E+00  0.00000000E+00  0.00000000E+00
  0.00000000E+00  0.00000000E+00  0.00000000E+00
  0.00000000E+00  0.00000000E+00  0.00000000E+00
  0.00000000E+00  0.00000000E+00  0.00000000E+00
  0.00000000E+00  0.00000000E+00  0.00000000E+00
  0.00000000E+00  0.00000000E+00  0.00000000E+00
  0.00000000E+00  0.00000000E+00  0.00000000E+00
  0.00000000E+00  0.00000000E+00  0.00000000E+00
  0.00000000E+00  0.00000000E+00  0.00000000E+00
  0.00000000E+00  0.00000000E+00  0.00000000E+00
  0.00000000E+00  0.00000000E+00  0.00000000E+00
  0.00000000E+00  0.00000000E+00  0.00000000E+00
  0.00000000E+00  0.00000000E+00  0.00000000E+00
  0.00000000E+00  0.00000000E+00  0.00000000E+00
  0.00000000E+00  0.00000000E+00  0.00000000E+00
  0.00000000E+00  0.00000000E+00  0.00000000E+00
  0.00000000E+00  0.00000000E+00  0.00000000E+00
  0.00000000E+00  0.00000000E+00  0.00000000E+00
  0.00000000E+00  0.00000000E+00  0.00000000E+00
  0.00000000E+00  0.00000000E+00  0.00000000E+00
  0.00000000E+00  0.00000000E+00  0.00000000E+00
  0.00000000E+00  0.00000000E+00  0.00000000E+00
  0.00000000E+00  0.00000000E+00  0.00000000E+00
  0.00000000E+00  0.00000000E+00  0.00000000E+00
  0.00000000E+00  0.00000000E+00  0.00000000E+00
  0.00000000E+00  0.00000000E+00  0.00000000E+00
  0.00000000E+00  0.00000000E+00  0.00000000E+00
  0.00000000E+00  0.00000000E+00  0.00000000E+00
  0.00000000E+00  0.00000000E+00  0.00000000E+00
  0.00000000E+00  0.00000000E+00  0.00000000E+00
  0.00000000E+00  0.00000000E+00  0.00000000E+00
  0.00000000E+00  0.00000000E+00  0.00000000E+00
  0.00000000E+00  0.00000000E+00  0.00000000E+00
  0.00000000E+00  0.00000000E+00  0.00000000E+00
  0.00000000E+00  0.00000000E+00  0.00000000E+00
  0.00000000E+00  0.00000000E+00  0.00000000E+00
  0.00000000E+00  0.00000000E+00  0.00000000E+00
  0.00000000E+00  0.00000000E+00  0.00000000E+00
  0.00000000E+00  0.00000000E+00  0.00000000E+00
  0.00000000E+00  0.00000000E+00  0.00000000E+00
  0.00000000E+00  0.00000000E+00  0.00000000E+00
  0.00000000E+00  0.00000000E+00  0.00000000E+00
  0.00000000E+00  0.00000000E+00  0.00000000E+00
  0.00000000E+00  0.00000000E+00  0.00000000E+00
  0.00000000E+00  0.00000000E+00  0.00000000E+00
  0.00000000E+00  0.00000000E+00  0.00000000E+00
  0.00000000E+00  0.00000000E+00  0.00000000E+00
  0.00000000E+00  0.00000000E+00  0.00000000E+00
  0.00000000E+00  0.00000000E+00  0.00000000E+00
  0.00000000E+00  0.00000000E+00  0.00000000E+00
  0.00000000E+00  0.00000000E+00  0.00000000E+00
  0.00000000E+00  0.00000000E+00  0.00000000E+00
  0.00000000E+00  0.00000000E+00  0.00000000E+00
  0.00000000E+00  0.00000000E+00  0.00000000E+00
  0.00000000E+00  0.00000000E+00  0.00000000E+00
  0.00000000E+00  0.00000000E+00  0.00000000E+00
  0.00000000E+00  0.00000000E+00  0.00000000E+00
  0.00000000E+00  0.00000000E+00  0.00000000E+00
  0.00000000E+00  0.00000000E+00  0.00000000E+00
  0.00000000E+00  0.00000000E+00  0.00000000E+00
  0.00000000E+00  0.00000000E+00  0.00000000E+00
  0.00000000E+00  0.00000000E+00  0.00000000E+00
  0.00000000E+00  0.00000000E+00  0.00000000E+00
  0.00000000E+00  0.00000000E+00  0.00000000E+00
  0.00000000E+00  0.00000000E+00  0.00000000E+00
  0.00000000E+00  0.00000000E+00  0.00000000E+00
  0.00000000E+00  0.00000000E+00  0.00000000E+00
  0.00000000E+00  0.00000000E+00  0.00000000E+00
  0.00000000E+00  0.00000000E+00  0.00000000E+00
  0.00000000E+00  0.00000000E+00  0.00000000E+00
  0.00000000E+00  0.00000000E+00  0.00000000E+00
  0.00000000E+00  0.00000000E+00  0.00000000E+00
  0.00000000E+00  0.00000000E+00  0.00000000E+00
  0.00000000E+00  0.00000000E+00  0.00000000E+00
  0.00000000E+00  0.00000000E+00  0.00000000E+00
  0.00000000E+00  0.00000000E+00  0.00000000E+00
  0.00000000E+00  0.00000000E+00  0.00000000E+00
  0.00000000E+00  0.00000000E+00  0.00000000E+00
  0.00000000E+00  0.00000000E+00  0.00000000E+00
  0.00000000E+00  0.00000000E+00  0.00000000E+00
  0.00000000E+00  0.00000000E+00  0.00000000E+00
  0.00000000E+00  0.00000000E+00  0.00000000E+00
  0.00000000E+00  0.00000000E+00  0.00000000E+00
  0.00000000E+00  0.00000000E+00  0.00000000E+00
  0.00000000E+00  0.00000000E+00  0.00000000E+00
  0.00000000E+00  0.00000000E+00  0.00000000E+00
  0.00000000E+00  0.00000000E+00  0.00000000E+00
  0.00000000E+00  0.00000000E+00  0.00000000E+00
  0.00000000E+00  0.00000000E+00  0.00000000E+00
  0.00000000E+00  0.00000000E+00  0.00000000E+00
  0.00000000E+00  0.00000000E+00  0.00000000E+00
  0.00000000E+00  0.00000000E+00  0.00000000E+00
  0.00000000E+00  0.00000000E+00  0.00000000E+00
  0.00000000E+00  0.00000000E+00  0.00000000E+00
  0.00000000E+00  0.00000000E+00  0.00000000E+00
  0.00000000E+00  0.00000000E+00  0.00000000E+00
  0.00000000E+00  0.00000000E+00  0.00000000E+00
  0.00000000E+00  0.00000000E+00  0.00000000E+00
  0.00000000E+00  0.00000000E+00  0.00000000E+00
  0.00000000E+00  0.00000000E+00  0.00000000E+00
  0.00000000E+00  0.00000000E+00  0.00000000E+00
  0.00000000E+00  0.00000000E+00  0.00000000E+00
  0.00000000E+00  0.00000000E+00  0.00000000E+00
  0.00000000E+00  0.00000000E+00  0.00000000E+00
  0.00000000E+00  0.00000000E+00  0.00000000E+00
  0.00000000E+00  0.00000000E+00  0.00000000E+00
  0.00000000E+00  0.00000000E+00  0.00000000E+00
  0.00000000E+00  0.00000000E+00  0.00000000E+00
  0.00000000E+00  0.00000000E+00  0.00000000E+00
  0.00000000E+00  0.00000000E+00  0.00000000E+00
  0.00000000E+00  0.00000000E+00  0.00000000E+00
  0.00000000E+00  0.00000000E+00  0.00000000E+00
  0.00000000E+00  0.00000000E+00  0.00000000E+00
  0.00000000E+00  0.00000000E+00  0.00000000E+00
