Ni  C  H  O                             
   1.00000000000000     
    17.4159994126999997    0.0000000000000000    0.0000000000000000
    -4.9759998320000003    8.6186845275999993    0.0000000000000000
     0.0000000000000000    0.0000000000000000   21.0942993164000008
   Ni   C    H    O 
    84    10    14     4
Selective dynamics
Direct
 -0.0004322125139946  0.2489236767887142  0.1885318647057584   T   T   T
 -0.0006443952605470  0.4990345860928297  0.1884813428795115   T   T   T
 -0.0004733443492171  0.7495997274647795  0.1883534868212048   T   T   T
 -0.0005385238380122 -0.0007736237403813  0.1885425954376840   T   T   T
  0.1414897827958499  0.2473025718146533  0.1882813493944906   T   T   T
  0.1416087327267165  0.4983333787623133  0.1886011734756813   T   T   T
  0.1407389879993049  0.7501908781615417  0.1875089668697885   T   T   T
  0.1416885201040670 -0.0006847565633380  0.1877451490342033   T   T   T
  0.2852062982040906  0.2456971653333033  0.1868804242497200   T   T   T
  0.2858666046542910  0.4938225780547743  0.1988001916785217   T   T   T
  0.2837586289615986  0.7548751826319043  0.1942436009818167   T   T   T
  0.2840687281413632  0.0025838163003448  0.1868646632696312   T   T   T
  0.4290482054415192  0.2493788976045860  0.1880501582091231   T   T   T
  0.4292827729897256  0.4965905660658438  0.1883827733784057   T   T   T
  0.4307235426109497  0.7486309766295691  0.1911393367254108   T   T   T
  0.4270859251987085 -0.0004543725375444  0.1902573593292185   T   T   T
  0.5719923153622890  0.2518201422861642  0.1881775921141360   T   T   T
  0.5721014429988839  0.4988780805398846  0.1880098373815376   T   T   T
  0.5741045083151066  0.7483849253920608  0.1863690489838646   T   T   T
  0.5733341411433671  0.0006506765230135  0.1931905693848608   T   T   T
  0.7156073765245933  0.2518290965715658  0.1878587043905882   T   T   T
  0.7147076489388933  0.5000596588717094  0.1885287399321669   T   T   T
  0.7154457322210672  0.7500971362914358  0.1883203380765671   T   T   T
  0.7162293375705748  0.0001612389811011  0.1869486785673815   T   T   T
  0.8572934343353943  0.2494038240525842  0.1884760966133051   T   T   T
  0.8574828876277780  0.4998517083240209  0.1884948207715209   T   T   T
  0.8573299217479217  0.7497367439447492  0.1885264934032362   T   T   T
  0.8573623651742317 -0.0002574374271689  0.1888688864260740   T   T   T
  0.0953968652785832  0.0844536695262192  0.0938298165805919   T   T   T
  0.0959581967352271  0.3345801578743454  0.0942434129217552   T   T   T
  0.0958335171090023  0.5831095898513063  0.0941130469542402   T   T   T
  0.0953986659513910  0.8331524727169285  0.0936510593328975   T   T   T
  0.2377409682535518  0.0831186687132379  0.0928831437644847   T   T   T
  0.2390542937266529  0.3375512047073162  0.0956784620716825   T   T   T
  0.2402006531333465  0.5848004363576210  0.0969416426228845   T   T   T
  0.2386108608001719  0.8311910660791746  0.0944587894927423   T   T   T
  0.3811818177996126  0.0815159482430336  0.0941703018334606   T   T   T
  0.3808763253777914  0.3335087333709099  0.0937039463157661   T   T   T
  0.3801391046027502  0.5837108915150427  0.0952065811059944   T   T   T
  0.3803587011503574  0.8309954605796233  0.0951378539008363   T   T   T
  0.5233943605518006  0.0807243417340480  0.0959386472313337   T   T   T
  0.5235242591327515  0.3322303816088846  0.0938384677129561   T   T   T
  0.5230586295027277  0.5826422954783179  0.0936282360212434   T   T   T
  0.5231916474999775  0.8335236681182435  0.0948432781215873   T   T   T
  0.6652739973120967  0.0819031319106656  0.0949373340764677   T   T   T
  0.6664878870315357  0.3326676775024048  0.0940282594380935   T   T   T
  0.6668369692360175  0.5832211654094537  0.0941853563166757   T   T   T
  0.6668124161630620  0.8331992865161644  0.0932841307963726   T   T   T
  0.8098962781143819  0.0834399660988883  0.0937170763235348   T   T   T
  0.8096585159313012  0.3327325867904181  0.0939408387833245   T   T   T
  0.8096550599676825  0.5830949937197923  0.0942626436593604   T   T   T
  0.8098375248540038  0.8333563243271438  0.0940825846947536   T   T   T
  0.9525437062995270  0.0834114327694166  0.0941891869665419   T   T   T
  0.9527740686373974  0.3334098361703589  0.0941860151048228   T   T   T
  0.9525581777682323  0.5832819923704771  0.0941166764028841   T   T   T
  0.9524842456975110  0.8333138102113218  0.0941754072869341   T   T   T
  0.0476185721907996  0.1666675060909810  0.0000000084382989   F   F   F
  0.0476185721907996  0.4166675060909810  0.0000000084382989   F   F   F
  0.0476185721907996  0.6666675060909810  0.0000000084382989   F   F   F
  0.0476185721907996  0.9166675060909810  0.0000000084382989   F   F   F
  0.1904757150479455  0.1666675060909810  0.0000000084382989   F   F   F
  0.1904757150479455  0.4166675060909810  0.0000000084382989   F   F   F
  0.1904757150479455  0.6666675060909810  0.0000000084382989   F   F   F
  0.1904757150479455  0.9166675060909810  0.0000000084382989   F   F   F
  0.3333328579050843  0.1666675060909810  0.0000000084382989   F   F   F
  0.3333328579050843  0.4166675060909810  0.0000000084382989   F   F   F
  0.3333328579050843  0.6666675060909810  0.0000000084382989   F   F   F
  0.3333328579050843  0.9166675060909810  0.0000000084382989   F   F   F
  0.4761900007622302  0.1666675060909810  0.0000000084382989   F   F   F
  0.4761900007622302  0.4166675060909810  0.0000000084382989   F   F   F
  0.4761900007622302  0.6666675060909810  0.0000000084382989   F   F   F
  0.4761900007622302  0.9166675060909810  0.0000000084382989   F   F   F
  0.6190471436193690  0.1666675060909810  0.0000000084382989   F   F   F
  0.6190471436193690  0.4166675060909810  0.0000000084382989   F   F   F
  0.6190471436193690  0.6666675060909810  0.0000000084382989   F   F   F
  0.6190471436193690  0.9166675060909810  0.0000000084382989   F   F   F
  0.7619042864765149  0.1666675060909810  0.0000000084382989   F   F   F
  0.7619042864765149  0.4166675060909810  0.0000000084382989   F   F   F
  0.7619042864765149  0.6666675060909810  0.0000000084382989   F   F   F
  0.7619042864765149  0.9166675060909810  0.0000000084382989   F   F   F
  0.9047614293336537  0.1666675060909810  0.0000000084382989   F   F   F
  0.9047614293336537  0.4166675060909810  0.0000000084382989   F   F   F
  0.9047614293336537  0.6666675060909810  0.0000000084382989   F   F   F
  0.9047614293336537  0.9166675060909810  0.0000000084382989   F   F   F
  0.2756973621124794  0.5006578974817190  0.2952561790824987   T   T   T
  0.3706169439880618  0.5822829819405863  0.2837791530986949   T   T   T
  0.4224146448071260  0.7517811568070722  0.2846627155581865   T   T   T
  0.3725485273624284  0.8335650171044259  0.2789908326780840   T   T   T
  0.2773306788537119  0.7523599659133294  0.2895034018547117   T   T   T
  0.2311829429561896  0.5894972326862659  0.3007902212513735   T   T   T
  0.2754910210190117  0.2767095745203281  0.3394997436302497   T   T   T
  0.5092384294692777  0.8352338150310219  0.3216953023657109   T   T   T
  0.5586690500819317  0.7461721439801610  0.3309153345865296   T   T   T
  0.6463312264938121  0.8367779137950806  0.3668000469228146   T   T   T
  0.4051498926373174  0.5201179628266206  0.2971711907426275   T   T   T
  0.4084651207955929  0.9574855691884527  0.2919381904198604   T   T   T
  0.2453296962023170  0.8165373210670286  0.3057482778672568   T   T   T
  0.1261371041552514  0.4134204866494736  0.3316714964390907   T   T   T
  0.3302623706556330  0.3421939049991654  0.3731965411091100   T   T   T
  0.2260943225266696  0.1658106061729974  0.3602369844612160   T   T   T
  0.3021138855419038  0.2543953588175275  0.2952793757944750   T   T   T
  0.4928514089590090  0.8611542045163066  0.3693662483530739   T   T   T
  0.5163899195517814  0.6390829794292029  0.3578133967621855   T   T   T
  0.6271463146952078  0.0217395311355927  0.3079025218754154   T   T   T
  0.6343091081632877  0.8631576787716529  0.4152949669200313   T   T   T
  0.6791009871588070  0.7667187844567597  0.3700078086588116   T   T   T
  0.7325231153996868  0.9700840651157474  0.3001077025988368   T   T   T
  0.5713456155986724  0.7084225332698589  0.2841506802015333   T   T   T
  0.1501019592078973  0.5258050868103616  0.3281991929552291   T   T   T
  0.2297634957400471  0.3593706825844410  0.3263753029798931   T   T   T
  0.5654707371088948  0.9859701498321968  0.2920778573652327   T   T   T
  0.7057841351022881  0.9859362915111524  0.3387906969570229   T   T   T
 
  0.00000000E+00  0.00000000E+00  0.00000000E+00
  0.00000000E+00  0.00000000E+00  0.00000000E+00
  0.00000000E+00  0.00000000E+00  0.00000000E+00
  0.00000000E+00  0.00000000E+00  0.00000000E+00
  0.00000000E+00  0.00000000E+00  0.00000000E+00
  0.00000000E+00  0.00000000E+00  0.00000000E+00
  0.00000000E+00  0.00000000E+00  0.00000000E+00
  0.00000000E+00  0.00000000E+00  0.00000000E+00
  0.00000000E+00  0.00000000E+00  0.00000000E+00
  0.00000000E+00  0.00000000E+00  0.00000000E+00
  0.00000000E+00  0.00000000E+00  0.00000000E+00
  0.00000000E+00  0.00000000E+00  0.00000000E+00
  0.00000000E+00  0.00000000E+00  0.00000000E+00
  0.00000000E+00  0.00000000E+00  0.00000000E+00
  0.00000000E+00  0.00000000E+00  0.00000000E+00
  0.00000000E+00  0.00000000E+00  0.00000000E+00
  0.00000000E+00  0.00000000E+00  0.00000000E+00
  0.00000000E+00  0.00000000E+00  0.00000000E+00
  0.00000000E+00  0.00000000E+00  0.00000000E+00
  0.00000000E+00  0.00000000E+00  0.00000000E+00
  0.00000000E+00  0.00000000E+00  0.00000000E+00
  0.00000000E+00  0.00000000E+00  0.00000000E+00
  0.00000000E+00  0.00000000E+00  0.00000000E+00
  0.00000000E+00  0.00000000E+00  0.00000000E+00
  0.00000000E+00  0.00000000E+00  0.00000000E+00
  0.00000000E+00  0.00000000E+00  0.00000000E+00
  0.00000000E+00  0.00000000E+00  0.00000000E+00
  0.00000000E+00  0.00000000E+00  0.00000000E+00
  0.00000000E+00  0.00000000E+00  0.00000000E+00
  0.00000000E+00  0.00000000E+00  0.00000000E+00
  0.00000000E+00  0.00000000E+00  0.00000000E+00
  0.00000000E+00  0.00000000E+00  0.00000000E+00
  0.00000000E+00  0.00000000E+00  0.00000000E+00
  0.00000000E+00  0.00000000E+00  0.00000000E+00
  0.00000000E+00  0.00000000E+00  0.00000000E+00
  0.00000000E+00  0.00000000E+00  0.00000000E+00
  0.00000000E+00  0.00000000E+00  0.00000000E+00
  0.00000000E+00  0.00000000E+00  0.00000000E+00
  0.00000000E+00  0.00000000E+00  0.00000000E+00
  0.00000000E+00  0.00000000E+00  0.00000000E+00
  0.00000000E+00  0.00000000E+00  0.00000000E+00
  0.00000000E+00  0.00000000E+00  0.00000000E+00
  0.00000000E+00  0.00000000E+00  0.00000000E+00
  0.00000000E+00  0.00000000E+00  0.00000000E+00
  0.00000000E+00  0.00000000E+00  0.00000000E+00
  0.00000000E+00  0.00000000E+00  0.00000000E+00
  0.00000000E+00  0.00000000E+00  0.00000000E+00
  0.00000000E+00  0.00000000E+00  0.00000000E+00
  0.00000000E+00  0.00000000E+00  0.00000000E+00
  0.00000000E+00  0.00000000E+00  0.00000000E+00
  0.00000000E+00  0.00000000E+00  0.00000000E+00
  0.00000000E+00  0.00000000E+00  0.00000000E+00
  0.00000000E+00  0.00000000E+00  0.00000000E+00
  0.00000000E+00  0.00000000E+00  0.00000000E+00
  0.00000000E+00  0.00000000E+00  0.00000000E+00
  0.00000000E+00  0.00000000E+00  0.00000000E+00
  0.00000000E+00  0.00000000E+00  0.00000000E+00
  0.00000000E+00  0.00000000E+00  0.00000000E+00
  0.00000000E+00  0.00000000E+00  0.00000000E+00
  0.00000000E+00  0.00000000E+00  0.00000000E+00
  0.00000000E+00  0.00000000E+00  0.00000000E+00
  0.00000000E+00  0.00000000E+00  0.00000000E+00
  0.00000000E+00  0.00000000E+00  0.00000000E+00
  0.00000000E+00  0.00000000E+00  0.00000000E+00
  0.00000000E+00  0.00000000E+00  0.00000000E+00
  0.00000000E+00  0.00000000E+00  0.00000000E+00
  0.00000000E+00  0.00000000E+00  0.00000000E+00
  0.00000000E+00  0.00000000E+00  0.00000000E+00
  0.00000000E+00  0.00000000E+00  0.00000000E+00
  0.00000000E+00  0.00000000E+00  0.00000000E+00
  0.00000000E+00  0.00000000E+00  0.00000000E+00
  0.00000000E+00  0.00000000E+00  0.00000000E+00
  0.00000000E+00  0.00000000E+00  0.00000000E+00
  0.00000000E+00  0.00000000E+00  0.00000000E+00
  0.00000000E+00  0.00000000E+00  0.00000000E+00
  0.00000000E+00  0.00000000E+00  0.00000000E+00
  0.00000000E+00  0.00000000E+00  0.00000000E+00
  0.00000000E+00  0.00000000E+00  0.00000000E+00
  0.00000000E+00  0.00000000E+00  0.00000000E+00
  0.00000000E+00  0.00000000E+00  0.00000000E+00
  0.00000000E+00  0.00000000E+00  0.00000000E+00
  0.00000000E+00  0.00000000E+00  0.00000000E+00
  0.00000000E+00  0.00000000E+00  0.00000000E+00
  0.00000000E+00  0.00000000E+00  0.00000000E+00
  0.00000000E+00  0.00000000E+00  0.00000000E+00
  0.00000000E+00  0.00000000E+00  0.00000000E+00
  0.00000000E+00  0.00000000E+00  0.00000000E+00
  0.00000000E+00  0.00000000E+00  0.00000000E+00
  0.00000000E+00  0.00000000E+00  0.00000000E+00
  0.00000000E+00  0.00000000E+00  0.00000000E+00
  0.00000000E+00  0.00000000E+00  0.00000000E+00
  0.00000000E+00  0.00000000E+00  0.00000000E+00
  0.00000000E+00  0.00000000E+00  0.00000000E+00
  0.00000000E+00  0.00000000E+00  0.00000000E+00
  0.00000000E+00  0.00000000E+00  0.00000000E+00
  0.00000000E+00  0.00000000E+00  0.00000000E+00
  0.00000000E+00  0.00000000E+00  0.00000000E+00
  0.00000000E+00  0.00000000E+00  0.00000000E+00
  0.00000000E+00  0.00000000E+00  0.00000000E+00
  0.00000000E+00  0.00000000E+00  0.00000000E+00
  0.00000000E+00  0.00000000E+00  0.00000000E+00
  0.00000000E+00  0.00000000E+00  0.00000000E+00
  0.00000000E+00  0.00000000E+00  0.00000000E+00
  0.00000000E+00  0.00000000E+00  0.00000000E+00
  0.00000000E+00  0.00000000E+00  0.00000000E+00
  0.00000000E+00  0.00000000E+00  0.00000000E+00
  0.00000000E+00  0.00000000E+00  0.00000000E+00
  0.00000000E+00  0.00000000E+00  0.00000000E+00
  0.00000000E+00  0.00000000E+00  0.00000000E+00
  0.00000000E+00  0.00000000E+00  0.00000000E+00
  0.00000000E+00  0.00000000E+00  0.00000000E+00
  0.00000000E+00  0.00000000E+00  0.00000000E+00
