Ni  C  H  O                             
   1.00000000000000     
    17.4159994126999997    0.0000000000000000    0.0000000000000000
    -4.9759998320000003    8.6186845275999993    0.0000000000000000
     0.0000000000000000    0.0000000000000000   21.0942993164000008
   Ni   C    H    O 
    84    10    14     3
Selective dynamics
Direct
  0.0000402120078901  0.2502344270754668  0.1884428228665711   T   T   T
 -0.0000150942643344  0.4991561442328039  0.1886507652385539   T   T   T
 -0.0005917624212191  0.7492718888697193  0.1882301496154270   T   T   T
 -0.0008457001579686 -0.0010571816203824  0.1882927413258328   T   T   T
  0.1411943118036550  0.2448693907395865  0.1879613474071387   T   T   T
  0.1460190120068685  0.5020234782779085  0.1953621832358997   T   T   T
  0.1414847364029176  0.7521412424597895  0.1876350091771530   T   T   T
  0.1418160070673870  0.9990362376602271  0.1873430503817296   T   T   T
  0.2862393179794581  0.2453943599205591  0.1865113459809348   T   T   T
  0.2864702923149205  0.4892578470485900  0.1968834008720975   T   T   T
  0.2861310696976124  0.7609593055691694  0.1928180475968054   T   T   T
  0.2855493615487339  0.0046793333032376  0.1865273091920224   T   T   T
  0.4296997571692147  0.2505640037796311  0.1880476716063980   T   T   T
  0.4302462974373490  0.4973260690089960  0.1875255334805394   T   T   T
  0.4267536854329059  0.7484763801620313  0.1943573942401277   T   T   T
  0.4306586754952020  0.0050678780424764  0.1878058796441918   T   T   T
  0.5725241503478837  0.2511496980031524  0.1884234228176372   T   T   T
  0.5726091505139216  0.5002629759323677  0.1882578866632356   T   T   T
  0.5717455116233197  0.7498578122018998  0.1880986826911200   T   T   T
  0.5719823828285384  0.0010120301677198  0.1882487296972380   T   T   T
  0.7146435253133047  0.2499371893420892  0.1884685030016736   T   T   T
  0.7149032956463074  0.5002912824711578  0.1886382583700721   T   T   T
  0.7147442017374186  0.7505060544498596  0.1883367425637694   T   T   T
  0.7144137110580041  0.0001940111769867  0.1884592924300150   T   T   T
  0.8574702557638454  0.2498991839709515  0.1885116443591579   T   T   T
  0.8573527488439092  0.4995706094936227  0.1884975660612603   T   T   T
  0.8571356037780751  0.7499094582564545  0.1884231077144059   T   T   T
  0.8573737455907449  0.0002322957848657  0.1885957913774524   T   T   T
  0.0953111166774421  0.0846009519115377  0.0936472519493754   T   T   T
  0.0967138454793356  0.3369699628425429  0.0953390967449564   T   T   T
  0.0966141207068524  0.5818559475826268  0.0953498799436640   T   T   T
  0.0953813791901012  0.8318905397647718  0.0936495546652475   T   T   T
  0.2374326012398547  0.0828349776844355  0.0927193803847841   T   T   T
  0.2388371200146402  0.3367529480234089  0.0949366409738609   T   T   T
  0.2397494109051593  0.5842416494641461  0.0970583172365536   T   T   T
  0.2386318789293454  0.8316434092515614  0.0938392233050585   T   T   T
  0.3809408673350222  0.0826103364112350  0.0935767879606546   T   T   T
  0.3809294013647351  0.3338492872676602  0.0934150244584623   T   T   T
  0.3800074874688953  0.5839920241222500  0.0956273300004301   T   T   T
  0.3801876602784534  0.8312884158938806  0.0950672111202684   T   T   T
  0.5235360653550154  0.0828502016517062  0.0939413558713146   T   T   T
  0.5239395847376429  0.3335629677141209  0.0940701945028448   T   T   T
  0.5235115844562566  0.5834909071185045  0.0938438165180997   T   T   T
  0.5214790334539250  0.8313071801623961  0.0955203040723345   T   T   T
  0.6662525410581098  0.0824733573579486  0.0940399657402761   T   T   T
  0.6669723047079890  0.3335027428015712  0.0941626699245345   T   T   T
  0.6670126974921828  0.5836139861797009  0.0941930287186231   T   T   T
  0.6662055523618341  0.8331777335607834  0.0940403657412103   T   T   T
  0.8096018629167533  0.0832590608792616  0.0942448007174065   T   T   T
  0.8096800363579800  0.3329196037060405  0.0942140631652801   T   T   T
  0.8097914313214324  0.5832714353230448  0.0942782500268140   T   T   T
  0.8096746362508723  0.8334974555655646  0.0941618698015796   T   T   T
  0.9527979069700629  0.0843027448445064  0.0941222662928079   T   T   T
  0.9529466322274682  0.3336092395769925  0.0941338986938945   T   T   T
  0.9528157091753366  0.5827757015268957  0.0941491586225931   T   T   T
  0.9524709708586409  0.8332742853307671  0.0940644393134089   T   T   T
  0.0476185721907996  0.1666675060909810  0.0000000084382989   F   F   F
  0.0476185721907996  0.4166675060909810  0.0000000084382989   F   F   F
  0.0476185721907996  0.6666675060909810  0.0000000084382989   F   F   F
  0.0476185721907996  0.9166675060909810  0.0000000084382989   F   F   F
  0.1904757150479455  0.1666675060909810  0.0000000084382989   F   F   F
  0.1904757150479455  0.4166675060909810  0.0000000084382989   F   F   F
  0.1904757150479455  0.6666675060909810  0.0000000084382989   F   F   F
  0.1904757150479455  0.9166675060909810  0.0000000084382989   F   F   F
  0.3333328579050843  0.1666675060909810  0.0000000084382989   F   F   F
  0.3333328579050843  0.4166675060909810  0.0000000084382989   F   F   F
  0.3333328579050843  0.6666675060909810  0.0000000084382989   F   F   F
  0.3333328579050843  0.9166675060909810  0.0000000084382989   F   F   F
  0.4761900007622302  0.1666675060909810  0.0000000084382989   F   F   F
  0.4761900007622302  0.4166675060909810  0.0000000084382989   F   F   F
  0.4761900007622302  0.6666675060909810  0.0000000084382989   F   F   F
  0.4761900007622302  0.9166675060909810  0.0000000084382989   F   F   F
  0.6190471436193690  0.1666675060909810  0.0000000084382989   F   F   F
  0.6190471436193690  0.4166675060909810  0.0000000084382989   F   F   F
  0.6190471436193690  0.6666675060909810  0.0000000084382989   F   F   F
  0.6190471436193690  0.9166675060909810  0.0000000084382989   F   F   F
  0.7619042864765149  0.1666675060909810  0.0000000084382989   F   F   F
  0.7619042864765149  0.4166675060909810  0.0000000084382989   F   F   F
  0.7619042864765149  0.6666675060909810  0.0000000084382989   F   F   F
  0.7619042864765149  0.9166675060909810  0.0000000084382989   F   F   F
  0.9047614293336537  0.1666675060909810  0.0000000084382989   F   F   F
  0.9047614293336537  0.4166675060909810  0.0000000084382989   F   F   F
  0.9047614293336537  0.6666675060909810  0.0000000084382989   F   F   F
  0.9047614293336537  0.9166675060909810  0.0000000084382989   F   F   F
  0.2433170187580202  0.4661192216275274  0.2915368237787346   T   T   T
  0.3383573758840564  0.5517887618981832  0.2879418140631597   T   T   T
  0.3885289093992585  0.7214835374947037  0.2877733863606378   T   T   T
  0.3358846734631405  0.7978449214958857  0.2833777642595120   T   T   T
  0.2402794469960776  0.7127681130700596  0.2834617448849828   T   T   T
  0.1908821607663804  0.5443639692702590  0.2889417703606028   T   T   T
  0.2423441129154058  0.2442215494398445  0.3387270827032220   T   T   T
  0.4723192792333952  0.8069653549037076  0.3281533791197491   T   T   T
  0.5276014382469826  0.7276520195393187  0.3344648915338286   T   T   T
  0.6198162147674766  0.8352179754107063  0.3612825118509436   T   T   T
  0.3734560439089055  0.4927179430144965  0.3038141387978150   T   T   T
  0.3681134312374047  0.9188979594363902  0.2989466841293598   T   T   T
  0.2051002593275291  0.7716905331084072  0.2997729635678568   T   T   T
  0.0888381686200616  0.3726473564171717  0.3273221474084379   T   T   T
  0.2904591984816068  0.3125905860049020  0.3760304159792979   T   T   T
  0.1915779901958544  0.1314989790073279  0.3571966483783461   T   T   T
  0.2767878267680366  0.2255693619155879  0.2983238790974576   T   T   T
  0.5140179652688966  0.9232655001326361  0.3064815274214973   T   T   T
  0.4912549820502746  0.6233936284982667  0.3642838505542382   T   T   T
  0.4953168415075089  0.8870733195554974  0.4156878619283645   T   T   T
  0.6169998178715225  0.8766525267370867  0.4092770897402582   T   T   T
  0.6584224395162827  0.7755622136661404  0.3645472923288301   T   T   T
  0.6563920695676411  0.9369439256406168  0.3302258374208811   T   T   T
  0.5340508936485975  0.6857975240974176  0.2868100926097912   T   T   T
  0.1145520533895330  0.4854783976206982  0.3250882270190256   T   T   T
  0.1955602682513409  0.3204986014125957  0.3179774177156683   T   T   T
  0.4424174717369828  0.8262392739673111  0.3900120996729105   T   T   T
 
  0.00000000E+00  0.00000000E+00  0.00000000E+00
  0.00000000E+00  0.00000000E+00  0.00000000E+00
  0.00000000E+00  0.00000000E+00  0.00000000E+00
  0.00000000E+00  0.00000000E+00  0.00000000E+00
  0.00000000E+00  0.00000000E+00  0.00000000E+00
  0.00000000E+00  0.00000000E+00  0.00000000E+00
  0.00000000E+00  0.00000000E+00  0.00000000E+00
  0.00000000E+00  0.00000000E+00  0.00000000E+00
  0.00000000E+00  0.00000000E+00  0.00000000E+00
  0.00000000E+00  0.00000000E+00  0.00000000E+00
  0.00000000E+00  0.00000000E+00  0.00000000E+00
  0.00000000E+00  0.00000000E+00  0.00000000E+00
  0.00000000E+00  0.00000000E+00  0.00000000E+00
  0.00000000E+00  0.00000000E+00  0.00000000E+00
  0.00000000E+00  0.00000000E+00  0.00000000E+00
  0.00000000E+00  0.00000000E+00  0.00000000E+00
  0.00000000E+00  0.00000000E+00  0.00000000E+00
  0.00000000E+00  0.00000000E+00  0.00000000E+00
  0.00000000E+00  0.00000000E+00  0.00000000E+00
  0.00000000E+00  0.00000000E+00  0.00000000E+00
  0.00000000E+00  0.00000000E+00  0.00000000E+00
  0.00000000E+00  0.00000000E+00  0.00000000E+00
  0.00000000E+00  0.00000000E+00  0.00000000E+00
  0.00000000E+00  0.00000000E+00  0.00000000E+00
  0.00000000E+00  0.00000000E+00  0.00000000E+00
  0.00000000E+00  0.00000000E+00  0.00000000E+00
  0.00000000E+00  0.00000000E+00  0.00000000E+00
  0.00000000E+00  0.00000000E+00  0.00000000E+00
  0.00000000E+00  0.00000000E+00  0.00000000E+00
  0.00000000E+00  0.00000000E+00  0.00000000E+00
  0.00000000E+00  0.00000000E+00  0.00000000E+00
  0.00000000E+00  0.00000000E+00  0.00000000E+00
  0.00000000E+00  0.00000000E+00  0.00000000E+00
  0.00000000E+00  0.00000000E+00  0.00000000E+00
  0.00000000E+00  0.00000000E+00  0.00000000E+00
  0.00000000E+00  0.00000000E+00  0.00000000E+00
  0.00000000E+00  0.00000000E+00  0.00000000E+00
  0.00000000E+00  0.00000000E+00  0.00000000E+00
  0.00000000E+00  0.00000000E+00  0.00000000E+00
  0.00000000E+00  0.00000000E+00  0.00000000E+00
  0.00000000E+00  0.00000000E+00  0.00000000E+00
  0.00000000E+00  0.00000000E+00  0.00000000E+00
  0.00000000E+00  0.00000000E+00  0.00000000E+00
  0.00000000E+00  0.00000000E+00  0.00000000E+00
  0.00000000E+00  0.00000000E+00  0.00000000E+00
  0.00000000E+00  0.00000000E+00  0.00000000E+00
  0.00000000E+00  0.00000000E+00  0.00000000E+00
  0.00000000E+00  0.00000000E+00  0.00000000E+00
  0.00000000E+00  0.00000000E+00  0.00000000E+00
  0.00000000E+00  0.00000000E+00  0.00000000E+00
  0.00000000E+00  0.00000000E+00  0.00000000E+00
  0.00000000E+00  0.00000000E+00  0.00000000E+00
  0.00000000E+00  0.00000000E+00  0.00000000E+00
  0.00000000E+00  0.00000000E+00  0.00000000E+00
  0.00000000E+00  0.00000000E+00  0.00000000E+00
  0.00000000E+00  0.00000000E+00  0.00000000E+00
  0.00000000E+00  0.00000000E+00  0.00000000E+00
  0.00000000E+00  0.00000000E+00  0.00000000E+00
  0.00000000E+00  0.00000000E+00  0.00000000E+00
  0.00000000E+00  0.00000000E+00  0.00000000E+00
  0.00000000E+00  0.00000000E+00  0.00000000E+00
  0.00000000E+00  0.00000000E+00  0.00000000E+00
  0.00000000E+00  0.00000000E+00  0.00000000E+00
  0.00000000E+00  0.00000000E+00  0.00000000E+00
  0.00000000E+00  0.00000000E+00  0.00000000E+00
  0.00000000E+00  0.00000000E+00  0.00000000E+00
  0.00000000E+00  0.00000000E+00  0.00000000E+00
  0.00000000E+00  0.00000000E+00  0.00000000E+00
  0.00000000E+00  0.00000000E+00  0.00000000E+00
  0.00000000E+00  0.00000000E+00  0.00000000E+00
  0.00000000E+00  0.00000000E+00  0.00000000E+00
  0.00000000E+00  0.00000000E+00  0.00000000E+00
  0.00000000E+00  0.00000000E+00  0.00000000E+00
  0.00000000E+00  0.00000000E+00  0.00000000E+00
  0.00000000E+00  0.00000000E+00  0.00000000E+00
  0.00000000E+00  0.00000000E+00  0.00000000E+00
  0.00000000E+00  0.00000000E+00  0.00000000E+00
  0.00000000E+00  0.00000000E+00  0.00000000E+00
  0.00000000E+00  0.00000000E+00  0.00000000E+00
  0.00000000E+00  0.00000000E+00  0.00000000E+00
  0.00000000E+00  0.00000000E+00  0.00000000E+00
  0.00000000E+00  0.00000000E+00  0.00000000E+00
  0.00000000E+00  0.00000000E+00  0.00000000E+00
  0.00000000E+00  0.00000000E+00  0.00000000E+00
  0.00000000E+00  0.00000000E+00  0.00000000E+00
  0.00000000E+00  0.00000000E+00  0.00000000E+00
  0.00000000E+00  0.00000000E+00  0.00000000E+00
  0.00000000E+00  0.00000000E+00  0.00000000E+00
  0.00000000E+00  0.00000000E+00  0.00000000E+00
  0.00000000E+00  0.00000000E+00  0.00000000E+00
  0.00000000E+00  0.00000000E+00  0.00000000E+00
  0.00000000E+00  0.00000000E+00  0.00000000E+00
  0.00000000E+00  0.00000000E+00  0.00000000E+00
  0.00000000E+00  0.00000000E+00  0.00000000E+00
  0.00000000E+00  0.00000000E+00  0.00000000E+00
  0.00000000E+00  0.00000000E+00  0.00000000E+00
  0.00000000E+00  0.00000000E+00  0.00000000E+00
  0.00000000E+00  0.00000000E+00  0.00000000E+00
  0.00000000E+00  0.00000000E+00  0.00000000E+00
  0.00000000E+00  0.00000000E+00  0.00000000E+00
  0.00000000E+00  0.00000000E+00  0.00000000E+00
  0.00000000E+00  0.00000000E+00  0.00000000E+00
  0.00000000E+00  0.00000000E+00  0.00000000E+00
  0.00000000E+00  0.00000000E+00  0.00000000E+00
  0.00000000E+00  0.00000000E+00  0.00000000E+00
  0.00000000E+00  0.00000000E+00  0.00000000E+00
  0.00000000E+00  0.00000000E+00  0.00000000E+00
  0.00000000E+00  0.00000000E+00  0.00000000E+00
  0.00000000E+00  0.00000000E+00  0.00000000E+00
  0.00000000E+00  0.00000000E+00  0.00000000E+00
  0.00000000E+00  0.00000000E+00  0.00000000E+00
