C  H  O                                 
   1.00000000000000     
    20.0000000000000000    0.0000000000000000    0.0000000000000000
     0.0000000000000000   20.0000000000000000    0.0000000000000000
     0.0000000000000000    0.0000000000000000   20.0000000000000000
   C    H    O 
    17    20     6
Selective dynamics
Direct
  0.3097000685341270  0.4594568783806669  0.5098419906658326   T   T   T
  0.3627911898529929  0.4772303969745655  0.5512277541691309   T   T   T
  0.3878391320878078  0.5429288106073875  0.5504357877368793   T   T   T
  0.3587275749068768  0.5898555981951701  0.5079281370524082   T   T   T
  0.3055441014966210  0.5721076609549353  0.4659710327612710   T   T   T
  0.2807139842240768  0.5071875077046653  0.4664972861148139   T   T   T
  0.3060551849148466  0.3468557314806303  0.5501385510832053   T   T   T
  0.4458831164641338  0.5603992041354213  0.5961627272198669   T   T   T
  0.5111063834138727  0.5236650955301938  0.5770673071749373   T   T   T
  0.5945813561744906  0.5468589847024269  0.4902715307806391   T   T   T
  0.6262019817128285  0.6046523736371727  0.4674209315165103   T   T   T
  0.6275149261379425  0.4845342898367128  0.4841423445888393   T   T   T
  0.6898368633916080  0.6021724058361209  0.4387510511824777   T   T   T
  0.6918759231276049  0.4824554616058680  0.4565396838911495   T   T   T
  0.7227878073125407  0.5409407360778862  0.4337724611405357   T   T   T
  0.5647055290236147  0.5294290287873257  0.6313438025524118   T   T   T
  0.6268823921046461  0.3662803965230966  0.5008518015876756   T   T   T
  0.3849645578920266  0.4402330428176622  0.5846455860397912   T   T   T
  0.3768115304081618  0.6412481087326644  0.5079167051334119   T   T   T
  0.2825273290886362  0.6086294305687965  0.4326500298667023   T   T   T
  0.2185074683233439  0.4427565702084572  0.4340232370555990   T   T   T
  0.3006132601942602  0.3620780601413962  0.6028797683294629   T   T   T
  0.2763425574046240  0.3018113827575297  0.5405403731271839   T   T   T
  0.3592472248933444  0.3369120915906538  0.5394343586838481   T   T   T
  0.4334043559650764  0.5450949825558012  0.6476486240724891   T   T   T
  0.5001725263214187  0.4701399854179097  0.5697624263857217   T   T   T
  0.4790521623525956  0.6426666316337276  0.5571772673949064   T   T   T
  0.5996126922245494  0.6519573084780892  0.4729562873673984   T   T   T
  0.7135111441244816  0.6480044588461569  0.4211225778720825   T   T   T
  0.7179544476232055  0.4348661652279672  0.4519558405726123   T   T   T
  0.7727166434191427  0.5380663763932976  0.4120342136458959   T   T   T
  0.5447078241187253  0.5024297412538012  0.6755949855078534   T   T   T
  0.6101507493246668  0.5030011226418277  0.6151095016615385   T   T   T
  0.5432002434394900  0.6231364914286764  0.6457003760553482   T   T   T
  0.6733730770250899  0.3661477773600250  0.5305801915273572   T   T   T
  0.5920239121517488  0.3289370020428634  0.5207481260459235   T   T   T
  0.6389861809117329  0.3544000875814088  0.4483542361625394   T   T   T
  0.2283826598721198  0.4899243115245324  0.4258146262301464   T   T   T
  0.2803977820425106  0.3971598680031058  0.5065484467835272   T   T   T
  0.5301882975815804  0.5536163662960218  0.5139202570459399   T   T   T
  0.4580867040356026  0.6312013939799602  0.5998872989257568   T   T   T
  0.5839792539933818  0.5958736248206892  0.6476607700760735   T   T   T
  0.5932553954678543  0.4290611322417422  0.5059195843673422   T   T   T
 
  0.00000000E+00  0.00000000E+00  0.00000000E+00
  0.00000000E+00  0.00000000E+00  0.00000000E+00
  0.00000000E+00  0.00000000E+00  0.00000000E+00
  0.00000000E+00  0.00000000E+00  0.00000000E+00
  0.00000000E+00  0.00000000E+00  0.00000000E+00
  0.00000000E+00  0.00000000E+00  0.00000000E+00
  0.00000000E+00  0.00000000E+00  0.00000000E+00
  0.00000000E+00  0.00000000E+00  0.00000000E+00
  0.00000000E+00  0.00000000E+00  0.00000000E+00
  0.00000000E+00  0.00000000E+00  0.00000000E+00
  0.00000000E+00  0.00000000E+00  0.00000000E+00
  0.00000000E+00  0.00000000E+00  0.00000000E+00
  0.00000000E+00  0.00000000E+00  0.00000000E+00
  0.00000000E+00  0.00000000E+00  0.00000000E+00
  0.00000000E+00  0.00000000E+00  0.00000000E+00
  0.00000000E+00  0.00000000E+00  0.00000000E+00
  0.00000000E+00  0.00000000E+00  0.00000000E+00
  0.00000000E+00  0.00000000E+00  0.00000000E+00
  0.00000000E+00  0.00000000E+00  0.00000000E+00
  0.00000000E+00  0.00000000E+00  0.00000000E+00
  0.00000000E+00  0.00000000E+00  0.00000000E+00
  0.00000000E+00  0.00000000E+00  0.00000000E+00
  0.00000000E+00  0.00000000E+00  0.00000000E+00
  0.00000000E+00  0.00000000E+00  0.00000000E+00
  0.00000000E+00  0.00000000E+00  0.00000000E+00
  0.00000000E+00  0.00000000E+00  0.00000000E+00
  0.00000000E+00  0.00000000E+00  0.00000000E+00
  0.00000000E+00  0.00000000E+00  0.00000000E+00
  0.00000000E+00  0.00000000E+00  0.00000000E+00
  0.00000000E+00  0.00000000E+00  0.00000000E+00
  0.00000000E+00  0.00000000E+00  0.00000000E+00
  0.00000000E+00  0.00000000E+00  0.00000000E+00
  0.00000000E+00  0.00000000E+00  0.00000000E+00
  0.00000000E+00  0.00000000E+00  0.00000000E+00
  0.00000000E+00  0.00000000E+00  0.00000000E+00
  0.00000000E+00  0.00000000E+00  0.00000000E+00
  0.00000000E+00  0.00000000E+00  0.00000000E+00
  0.00000000E+00  0.00000000E+00  0.00000000E+00
  0.00000000E+00  0.00000000E+00  0.00000000E+00
  0.00000000E+00  0.00000000E+00  0.00000000E+00
  0.00000000E+00  0.00000000E+00  0.00000000E+00
  0.00000000E+00  0.00000000E+00  0.00000000E+00
  0.00000000E+00  0.00000000E+00  0.00000000E+00
