O  C  N  H                              
   1.00000000000000     
    20.0000000000000000    0.0000000000000000    0.0000000000000000
     0.0000000000000000   21.0000000000000000    0.0000000000000000
     0.0000000000000000    0.0000000000000000   22.0000000000000000
   O    C    N    H 
     4    11     2    14
Selective dynamics
Direct
  0.6417143783251811  0.3816042150757230  0.4657138383030814   T   T   T
  0.6606873358793693  0.4892728069250669  0.4581982634188282   T   T   T
  0.3386905529666231  0.2138551330375547  0.4228021565774963   T   T   T
  0.4261374135734968  0.1451180451873144  0.4393674873009485   T   T   T
  0.4328733510342331  0.5219940758320968  0.4403785995572213   T   T   T
  0.4359797738817296  0.4504050367944314  0.4420125989362590   T   T   T
  0.3778413864830867  0.4138677584428365  0.4380921797725916   T   T   T
  0.3782150623499119  0.3474393243838190  0.4390635946904956   T   T   T
  0.4397966971008857  0.3160366693052085  0.4442301564510372   T   T   T
  0.4993246684971436  0.3511516245902390  0.4486120129689366   T   T   T
  0.4975931798088001  0.4177204462245170  0.4474321991502215   T   T   T
  0.6208329567060605  0.4359539130143983  0.4589248998273061   T   T   T
  0.7308852434500489  0.4764308175005268  0.4667101300449563   T   T   T
  0.3976538306793092  0.2045270052943506  0.4347946975831750   T   T   T
  0.3803787119035461  0.0937133597209494  0.4267432619954180   T   T   T
  0.5558166210224990  0.4550415912574260  0.4508582775494134   T   T   T
  0.4460658169449320  0.2493599606371829  0.4457677895044995   T   T   T
  0.3300220094781536  0.4386954171330513  0.4342147806877862   T   T   T
  0.3321761842341335  0.3202295386804050  0.4358132523804444   T   T   T
  0.5473448793152318  0.3270889863824922  0.4527579647073624   T   T   T
  0.5495649997467928  0.5028102987283689  0.4466864944993776   T   T   T
  0.4927682258145253  0.2319958023128998  0.4531536266043027   T   T   T
  0.4543747959657375  0.5436750297740285  0.4817141392800040   T   T   T
  0.3807693328036688  0.5379940429586800  0.4368657148794381   T   T   T
  0.4601320265000164  0.5418283381158254  0.4010294913248433   T   T   T
  0.7557164774229838  0.5226542218928417  0.4618011554013232   T   T   T
  0.7399496798202532  0.4564418139066339  0.5121576001359458   T   T   T
  0.7489560517256189  0.4426046471820822  0.4323126199030924   T   T   T
  0.3371565191671225  0.0956316026566202  0.4575479247379692   T   T   T
  0.3624293961611536  0.0965339915107814  0.3795765089856828   T   T   T
  0.4092211447377297  0.0500112211130741  0.4339403761587088   T   T   T
 
  0.00000000E+00  0.00000000E+00  0.00000000E+00
  0.00000000E+00  0.00000000E+00  0.00000000E+00
  0.00000000E+00  0.00000000E+00  0.00000000E+00
  0.00000000E+00  0.00000000E+00  0.00000000E+00
  0.00000000E+00  0.00000000E+00  0.00000000E+00
  0.00000000E+00  0.00000000E+00  0.00000000E+00
  0.00000000E+00  0.00000000E+00  0.00000000E+00
  0.00000000E+00  0.00000000E+00  0.00000000E+00
  0.00000000E+00  0.00000000E+00  0.00000000E+00
  0.00000000E+00  0.00000000E+00  0.00000000E+00
  0.00000000E+00  0.00000000E+00  0.00000000E+00
  0.00000000E+00  0.00000000E+00  0.00000000E+00
  0.00000000E+00  0.00000000E+00  0.00000000E+00
  0.00000000E+00  0.00000000E+00  0.00000000E+00
  0.00000000E+00  0.00000000E+00  0.00000000E+00
  0.00000000E+00  0.00000000E+00  0.00000000E+00
  0.00000000E+00  0.00000000E+00  0.00000000E+00
  0.00000000E+00  0.00000000E+00  0.00000000E+00
  0.00000000E+00  0.00000000E+00  0.00000000E+00
  0.00000000E+00  0.00000000E+00  0.00000000E+00
  0.00000000E+00  0.00000000E+00  0.00000000E+00
  0.00000000E+00  0.00000000E+00  0.00000000E+00
  0.00000000E+00  0.00000000E+00  0.00000000E+00
  0.00000000E+00  0.00000000E+00  0.00000000E+00
  0.00000000E+00  0.00000000E+00  0.00000000E+00
  0.00000000E+00  0.00000000E+00  0.00000000E+00
  0.00000000E+00  0.00000000E+00  0.00000000E+00
  0.00000000E+00  0.00000000E+00  0.00000000E+00
  0.00000000E+00  0.00000000E+00  0.00000000E+00
  0.00000000E+00  0.00000000E+00  0.00000000E+00
  0.00000000E+00  0.00000000E+00  0.00000000E+00
