O  C  N  H                              
   1.00000000000000     
    20.0000000000000000    0.0000000000000000    0.0000000000000000
     0.0000000000000000   21.0000000000000000    0.0000000000000000
     0.0000000000000000    0.0000000000000000   22.0000000000000000
   O    C    N    H 
     2     9     2    12
Selective dynamics
Direct
  0.6492847679284438  0.3871714046025567  0.4681331895017974   T   T   T
  0.6623661445596833  0.4946490471771197  0.4522084151632286   T   T   T
  0.4331797243987138  0.5151404262861792  0.4329891279834170   T   T   T
  0.4399132957016972  0.4441501292117427  0.4404301938957933   T   T   T
  0.3835479189021986  0.4048156668467908  0.4408318758276329   T   T   T
  0.3879120030326959  0.3389847119584217  0.4476740807287164   T   T   T
  0.4509299561800042  0.3102504723563770  0.4543457332882460   T   T   T
  0.5085348075888703  0.3485051280698635  0.4540615028190056   T   T   T
  0.5031229180806407  0.4145700005356731  0.4473411890407978   T   T   T
  0.6254112929763304  0.4395477121005079  0.4568628952296170   T   T   T
  0.7325501926150285  0.4867540277814099  0.4648083117397472   T   T   T
  0.5596057451565395  0.4545724334715947  0.4467304979952789   T   T   T
  0.4564497997975474  0.2448247009728283  0.4638874916257680   T   T   T
  0.3344252654363404  0.4269242495831015  0.4356750481331487   T   T   T
  0.3427428848362339  0.3097811236452717  0.4483366669659282   T   T   T
  0.5577661517598500  0.3271370701529993  0.4594488865856961   T   T   T
  0.5508409867655737  0.5015216711543751  0.4392009178255920   T   T   T
  0.4176461932332722  0.2182158926580950  0.4484620525598197   T   T   T
  0.5016724069264386  0.2254620289719342  0.4540366615019423   T   T   T
  0.4537619265583808  0.5414820031861581  0.4722083875323445   T   T   T
  0.3802558022998178  0.5283930345114194  0.4286997417343403   T   T   T
  0.4590888810057072  0.5328715724847037  0.3919751972015107   T   T   T
  0.7555067566922724  0.5326405982583012  0.4535499964418455   T   T   T
  0.7402884734056605  0.4753902570785190  0.5131080359459781   T   T   T
  0.7538399259470824  0.4483553337488276  0.4369220512464423   T   T   T
 
  0.00000000E+00  0.00000000E+00  0.00000000E+00
  0.00000000E+00  0.00000000E+00  0.00000000E+00
  0.00000000E+00  0.00000000E+00  0.00000000E+00
  0.00000000E+00  0.00000000E+00  0.00000000E+00
  0.00000000E+00  0.00000000E+00  0.00000000E+00
  0.00000000E+00  0.00000000E+00  0.00000000E+00
  0.00000000E+00  0.00000000E+00  0.00000000E+00
  0.00000000E+00  0.00000000E+00  0.00000000E+00
  0.00000000E+00  0.00000000E+00  0.00000000E+00
  0.00000000E+00  0.00000000E+00  0.00000000E+00
  0.00000000E+00  0.00000000E+00  0.00000000E+00
  0.00000000E+00  0.00000000E+00  0.00000000E+00
  0.00000000E+00  0.00000000E+00  0.00000000E+00
  0.00000000E+00  0.00000000E+00  0.00000000E+00
  0.00000000E+00  0.00000000E+00  0.00000000E+00
  0.00000000E+00  0.00000000E+00  0.00000000E+00
  0.00000000E+00  0.00000000E+00  0.00000000E+00
  0.00000000E+00  0.00000000E+00  0.00000000E+00
  0.00000000E+00  0.00000000E+00  0.00000000E+00
  0.00000000E+00  0.00000000E+00  0.00000000E+00
  0.00000000E+00  0.00000000E+00  0.00000000E+00
  0.00000000E+00  0.00000000E+00  0.00000000E+00
  0.00000000E+00  0.00000000E+00  0.00000000E+00
  0.00000000E+00  0.00000000E+00  0.00000000E+00
  0.00000000E+00  0.00000000E+00  0.00000000E+00
