Ag  O  C  N  H                          
   1.00000000000000     
    17.3505005835000006    0.0000000000000000    0.0000000000000000
    -8.6752502918999994   15.0259742738999993    0.0000000000000000
     0.0000000000000000    0.0000000000000000   22.0832996367999996
   Ag   O    C    N    H 
   144     4    11     2    14
Selective dynamics
Direct
  0.0000000000000000  0.0000000000000000  0.0000000000000000   F   F   F
  0.9999999999987850  0.1666666666699967  0.0000000000000000   F   F   F
  0.1666666666683270  0.1666666666699967  0.0000000000000000   F   F   F
  0.1666666666695491  0.0000000000000000  0.0000000000000000   F   F   F
  0.0000000000000000  0.3333333333333357  0.0000000000000000   F   F   F
  0.0000000000045475  0.5000000000033253  0.0000000000000000   F   F   F
  0.1666666666683270  0.5000000000033253  0.0000000000000000   F   F   F
  0.1666666666637866  0.3333333333333357  0.0000000000000000   F   F   F
  0.0000000000000000  0.6666666666666643  0.0000000000000000   F   F   F
  0.9999999999954525  0.8333333333300033  0.0000000000000000   F   F   F
  0.1666666666650016  0.8333333333300033  0.0000000000000000   F   F   F
  0.1666666666637866  0.6666666666666643  0.0000000000000000   F   F   F
  0.3333333333333357  0.0000000000000000  0.0000000000000000   F   F   F
  0.3333333333321136  0.1666666666699967  0.0000000000000000   F   F   F
  0.5000000000016627  0.1666666666699967  0.0000000000000000   F   F   F
  0.5000000000028848  0.0000000000000000  0.0000000000000000   F   F   F
  0.3333333333333357  0.3333333333333357  0.0000000000000000   F   F   F
  0.3333333333321136  0.5000000000033253  0.0000000000000000   F   F   F
  0.5000000000016627  0.5000000000033253  0.0000000000000000   F   F   F
  0.5000000000028848  0.3333333333333357  0.0000000000000000   F   F   F
  0.3333333333333357  0.6666666666666643  0.0000000000000000   F   F   F
  0.3333333333287882  0.8333333333300033  0.0000000000000000   F   F   F
  0.4999999999983373  0.8333333333300033  0.0000000000000000   F   F   F
  0.5000000000028848  0.6666666666666643  0.0000000000000000   F   F   F
  0.6666666666666643  0.0000000000000000  0.0000000000000000   F   F   F
  0.6666666666654493  0.1666666666699967  0.0000000000000000   F   F   F
  0.8333333333349984  0.1666666666699967  0.0000000000000000   F   F   F
  0.8333333333362134  0.0000000000000000  0.0000000000000000   F   F   F
  0.6666666666666643  0.3333333333333357  0.0000000000000000   F   F   F
  0.6666666666654493  0.5000000000033253  0.0000000000000000   F   F   F
  0.8333333333349984  0.5000000000033253  0.0000000000000000   F   F   F
  0.8333333333304509  0.3333333333333357  0.0000000000000000   F   F   F
  0.6666666666666643  0.6666666666666643  0.0000000000000000   F   F   F
  0.6666666666621239  0.8333333333300033  0.0000000000000000   F   F   F
  0.8333333333316730  0.8333333333300033  0.0000000000000000   F   F   F
  0.8333333333362134  0.6666666666666643  0.0000000000000000   F   F   F
  0.2222233413339652  0.1111100016655797  0.1069199959984815   F   F   F
  0.2222233413333825  0.2777766586656512  0.1069199959984815   F   F   F
  0.0555566649984058  0.2777766586656512  0.1069199959984815   F   F   F
  0.0555566649989956  0.1111100016655797  0.1069199959984815   F   F   F
  0.2222233413339652  0.4444433349989154  0.1069199959984815   F   F   F
  0.2222233413333825  0.6111099919989869  0.1069199959984815   F   F   F
  0.0555566649984058  0.6111099919989869  0.1069199959984815   F   F   F
  0.0555566649989956  0.4444433349989154  0.1069199959984815   F   F   F
  0.2222233413339652  0.7777766683322440  0.1069199959984815   F   F   F
  0.2222233413333825  0.9444433253323226  0.1069199959984815   F   F   F
  0.0555566649984058  0.9444433253323226  0.1069199959984815   F   F   F
  0.0555566649989956  0.7777766683322440  0.1069199959984815   F   F   F
  0.5555566746673009  0.1111100016655797  0.1069199959984815   F   F   F
  0.5555566746667182  0.2777766586656512  0.1069199959984815   F   F   F
  0.3888899983317415  0.2777766586656512  0.1069199959984815   F   F   F
  0.3888899983323242  0.1111100016655797  0.1069199959984815   F   F   F
  0.5555566746673009  0.4444433349989154  0.1069199959984815   F   F   F
  0.5555566746667182  0.6111099919989869  0.1069199959984815   F   F   F
  0.3888899983317415  0.6111099919989869  0.1069199959984815   F   F   F
  0.3888899983323242  0.4444433349989154  0.1069199959984815   F   F   F
  0.5555566746673009  0.7777766683322440  0.1069199959984815   F   F   F
  0.5555566746667182  0.9444433253323226  0.1069199959984815   F   F   F
  0.3888899983317415  0.9444433253323226  0.1069199959984815   F   F   F
  0.3888899983323242  0.7777766683322440  0.1069199959984815   F   F   F
  0.8888900080006366  0.1111100016655797  0.1069199959984815   F   F   F
  0.8888900080000539  0.2777766586656512  0.1069199959984815   F   F   F
  0.7222233316650772  0.2777766586656512  0.1069199959984815   F   F   F
  0.7222233316656599  0.1111100016655797  0.1069199959984815   F   F   F
  0.8888900080006366  0.4444433349989154  0.1069199959984815   F   F   F
  0.8888900080000539  0.6111099919989869  0.1069199959984815   F   F   F
  0.7222233316650772  0.6111099919989869  0.1069199959984815   F   F   F
  0.7222233316656599  0.4444433349989154  0.1069199959984815   F   F   F
  0.8888900080006366  0.7777766683322440  0.1069199959984815   F   F   F
  0.8888900080000539  0.9444433253323226  0.1069199959984815   F   F   F
  0.7222233316650772  0.9444433253323226  0.1069199959984815   F   F   F
  0.7222233316656599  0.7777766683322440  0.1069199959984815   F   F   F
  0.1109718214170201  0.2223636584580805  0.2145230132641677   T   T   T
  0.1108392097773625  0.0550164147054492  0.2142901328751393   T   T   T
  0.2777968148325715  0.0552898674647008  0.2150255482141170   T   T   T
  0.2776973249694297  0.2215308550613082  0.2138576506448447   T   T   T
  0.1111129823408383  0.5555878832233003  0.2150114832395394   T   T   T
  0.1109522057429521  0.3888490153898808  0.2154217102407492   T   T   T
  0.2774236228468445  0.3889608140252505  0.2146900979255407   T   T   T
  0.2777790088600490  0.5555635921360310  0.2151421360863793   T   T   T
  0.1112257870889596  0.8887976198973210  0.2148077881126904   T   T   T
  0.1112434591883773  0.7222482392292325  0.2150443149520204   T   T   T
  0.2777118365366315  0.7222675073652239  0.2149444490857041   T   T   T
  0.2777984322109100  0.8887987210749184  0.2153876363407466   T   T   T
  0.4444715955492598  0.2218531039363077  0.2144890168741848   T   T   T
  0.4444854409514717  0.0554960709496026  0.2153414395098414   T   T   T
  0.6111057846073371  0.0555834105688207  0.2152163849976948   T   T   T
  0.6111429697140062  0.2221202845418897  0.2151830832157558   T   T   T
  0.4443552249125065  0.5553030215902609  0.2149166827632165   T   T   T
  0.4449604933087603  0.3889740156669624  0.2139193597227322   T   T   T
  0.6115757148385538  0.3889128517082702  0.2146761918098243   T   T   T
  0.6115019191200508  0.5555596112673857  0.2145382988544482   T   T   T
  0.4443678355669228  0.8889843255318214  0.2150260079423298   T   T   T
  0.4442681781771993  0.7224490038085275  0.2144037542804930   T   T   T
  0.6111580788464818  0.7225362487574417  0.2138344037319220   T   T   T
  0.6111223084691926  0.8891962830027025  0.2145996245471649   T   T   T
  0.7777891660776018  0.2221502032233673  0.2153442970840323   T   T   T
  0.7778327196077226  0.0556290099415932  0.2153059079968062   T   T   T
  0.9444257846469446  0.0555751053279985  0.2150514294735323   T   T   T
  0.9443879129171180  0.2222303642860819  0.2152144074587045   T   T   T
  0.7778821183900223  0.5554657226618780  0.2145358321142121   T   T   T
  0.7778828846603699  0.3887699430977460  0.2149485906167052   T   T   T
  0.9444598455900447  0.3888870042501006  0.2151697314680112   T   T   T
  0.9445557672150285  0.5555429736116624  0.2148201359804545   T   T   T
  0.7781099936204067  0.8892725295260751  0.2145955115878285   T   T   T
  0.7782121435208640  0.7227749075788749  0.2139224117527206   T   T   T
  0.9450319541083440  0.7225046780862899  0.2142497559820732   T   T   T
  0.9444621725482387  0.8888791404785827  0.2147902206957656   T   T   T
  0.0000969311887715  0.9999245470722686  0.3239279183514163   T   T   T
  0.9998108533928782  0.1665423284004628  0.3239575546620871   T   T   T
  0.1663060889351628  0.1663301849265479  0.3216249033539652   T   T   T
  0.1666771920641217  0.9998325557627848  0.3238661332995612   T   T   T
  0.9999736390561150  0.3333553485226122  0.3245996600843178   T   T   T
  0.0002102047397655  0.5002434728042323  0.3243991193423572   T   T   T
  0.1665642328379562  0.5001420296646114  0.3240243610510065   T   T   T
  0.1665880328952378  0.3330708558550917  0.3245693199326930   T   T   T
  0.0001909279518957  0.6668394177405533  0.3238919638959336   T   T   T
  0.0002014226187414  0.8334651180278166  0.3239129864563823   T   T   T
  0.1667068591995656  0.8333288138977845  0.3246270130889259   T   T   T
  0.1667759678129511  0.6668675149539461  0.3245101603337946   T   T   T
  0.3333299977410221  0.9999704977430366  0.3246401969967105   T   T   T
  0.3334284316807362  0.1663576184927736  0.3240375787786773   T   T   T
  0.5000088858066514  0.1665162159042534  0.3245511262513311   T   T   T
  0.4999979138195831  0.9999617825283150  0.3246292101362582   T   T   T
  0.3334208725764216  0.3324592220112957  0.3202199140881908   T   T   T
  0.3332042146415751  0.4997567230431695  0.3239774653941831   T   T   T
  0.5012625745111683  0.4997046195663317  0.3224373082061081   T   T   T
  0.5004927243837904  0.3327043342525256  0.3224299521417210   T   T   T
  0.3333354704693758  0.6668589258365762  0.3238306592572165   T   T   T
  0.3334248960189587  0.8333455466784423  0.3246184040112823   T   T   T
  0.5000787294264762  0.8334774206931934  0.3238365133063917   T   T   T
  0.5001777198727146  0.6669314451833744  0.3217285611280675   T   T   T
  0.6665721583599470  0.9999602019401341  0.3245929825008971   T   T   T
  0.6667197341714223  0.1666286208584770  0.3246069158401113   T   T   T
  0.8333129818607751  0.1666410125759573  0.3246328883542799   T   T   T
  0.8333611164159319  0.0000165476746245  0.3246120349529335   T   T   T
  0.6670342106336821  0.3331603889272515  0.3241120821296147   T   T   T
  0.6675210136155715  0.4998999856807060  0.3240991555389775   T   T   T
  0.8338888694858310  0.5001945489024415  0.3238175706426890   T   T   T
  0.8335452746292435  0.3334201918168953  0.3244974984962886   T   T   T
  0.6676261884037988  0.6677617018413617  0.3214830610453450   T   T   T
  0.6671988093757339  0.8338985845671690  0.3228186861280074   T   T   T
  0.8336873810875571  0.8338180917720407  0.3240847881976674   T   T   T
  0.8339076967552891  0.6673606972338008  0.3215407678496711   T   T   T
  0.6875395364227146  0.5315201722540728  0.4691456855841373   T   T   T
  0.7861358045628235  0.6815073946648464  0.4765086577413618   T   T   T
  0.2210156901320029  0.2985738047792993  0.4746051336359663   T   T   T
  0.2795572218585907  0.2054519114488048  0.4731229655227058   T   T   T
  0.5464077473360693  0.7309093516794686  0.4768061123644752   T   T   T
  0.5003411690710633  0.6315101174681176  0.4694411620561358   T   T   T
  0.4075585941860727  0.5802442986980361  0.4667370130799163   T   T   T
  0.3614026277962972  0.4871877827716645  0.4636127782282526   T   T   T
  0.4108559756131763  0.4432756541989728  0.4631880802674074   T   T   T
  0.5044546705521534  0.4928034995941179  0.4628565458482326   T   T   T
  0.5490176508650396  0.5859071413487977  0.4670325825158856   T   T   T
  0.7031933144370909  0.6086266940148187  0.4715835993367322   T   T   T
  0.8579778293469150  0.6622048169322646  0.4800681741713759   T   T   T
  0.2846172690962853  0.2866029254480719  0.4705308404084761   T   T   T
  0.1908656062223938  0.1311225925598038  0.4815749177750240   T   T   T
  0.6420314359703619  0.6371902035423084  0.4695047170938545   T   T   T
  0.3725855683631366  0.3505114252224766  0.4623764762514231   T   T   T
  0.3693759185356162  0.6146866138479803  0.4678872264720649   T   T   T
  0.2891049674773116  0.4492383416487619  0.4637649153683514   T   T   T
  0.5432493542305810  0.4592283235168929  0.4625115977345258   T   T   T
  0.6687522989009936  0.7043353813086700  0.4706802428432618   T   T   T
  0.4155668678329343  0.3268578223332663  0.4591797401564934   T   T   T
  0.5822502169998595  0.7523825909248891  0.5203573103590118   T   T   T
  0.4980973435668786  0.7541613413303492  0.4750900867927462   T   T   T
  0.5953614567945464  0.7662777681061607  0.4403285252851362   T   T   T
  0.9187787679507010  0.7258494874595516  0.4718413060138458   T   T   T
  0.8591979434056483  0.6359682363272622  0.5251600331446686   T   T   T
  0.8501477589846360  0.6133175606151126  0.4453525917912813   T   T   T
  0.1644845875667334  0.1356622001066048  0.5258605760170888   T   T   T
  0.1461513072224985  0.1296567282223779  0.4456314762540324   T   T   T
  0.1978670218702218  0.0718624363779748  0.4788126553551927   T   T   T
 
  0.00000000E+00  0.00000000E+00  0.00000000E+00
  0.00000000E+00  0.00000000E+00  0.00000000E+00
  0.00000000E+00  0.00000000E+00  0.00000000E+00
  0.00000000E+00  0.00000000E+00  0.00000000E+00
  0.00000000E+00  0.00000000E+00  0.00000000E+00
  0.00000000E+00  0.00000000E+00  0.00000000E+00
  0.00000000E+00  0.00000000E+00  0.00000000E+00
  0.00000000E+00  0.00000000E+00  0.00000000E+00
  0.00000000E+00  0.00000000E+00  0.00000000E+00
  0.00000000E+00  0.00000000E+00  0.00000000E+00
  0.00000000E+00  0.00000000E+00  0.00000000E+00
  0.00000000E+00  0.00000000E+00  0.00000000E+00
  0.00000000E+00  0.00000000E+00  0.00000000E+00
  0.00000000E+00  0.00000000E+00  0.00000000E+00
  0.00000000E+00  0.00000000E+00  0.00000000E+00
  0.00000000E+00  0.00000000E+00  0.00000000E+00
  0.00000000E+00  0.00000000E+00  0.00000000E+00
  0.00000000E+00  0.00000000E+00  0.00000000E+00
  0.00000000E+00  0.00000000E+00  0.00000000E+00
  0.00000000E+00  0.00000000E+00  0.00000000E+00
  0.00000000E+00  0.00000000E+00  0.00000000E+00
  0.00000000E+00  0.00000000E+00  0.00000000E+00
  0.00000000E+00  0.00000000E+00  0.00000000E+00
  0.00000000E+00  0.00000000E+00  0.00000000E+00
  0.00000000E+00  0.00000000E+00  0.00000000E+00
  0.00000000E+00  0.00000000E+00  0.00000000E+00
  0.00000000E+00  0.00000000E+00  0.00000000E+00
  0.00000000E+00  0.00000000E+00  0.00000000E+00
  0.00000000E+00  0.00000000E+00  0.00000000E+00
  0.00000000E+00  0.00000000E+00  0.00000000E+00
  0.00000000E+00  0.00000000E+00  0.00000000E+00
  0.00000000E+00  0.00000000E+00  0.00000000E+00
  0.00000000E+00  0.00000000E+00  0.00000000E+00
  0.00000000E+00  0.00000000E+00  0.00000000E+00
  0.00000000E+00  0.00000000E+00  0.00000000E+00
  0.00000000E+00  0.00000000E+00  0.00000000E+00
  0.00000000E+00  0.00000000E+00  0.00000000E+00
  0.00000000E+00  0.00000000E+00  0.00000000E+00
  0.00000000E+00  0.00000000E+00  0.00000000E+00
  0.00000000E+00  0.00000000E+00  0.00000000E+00
  0.00000000E+00  0.00000000E+00  0.00000000E+00
  0.00000000E+00  0.00000000E+00  0.00000000E+00
  0.00000000E+00  0.00000000E+00  0.00000000E+00
  0.00000000E+00  0.00000000E+00  0.00000000E+00
  0.00000000E+00  0.00000000E+00  0.00000000E+00
  0.00000000E+00  0.00000000E+00  0.00000000E+00
  0.00000000E+00  0.00000000E+00  0.00000000E+00
  0.00000000E+00  0.00000000E+00  0.00000000E+00
  0.00000000E+00  0.00000000E+00  0.00000000E+00
  0.00000000E+00  0.00000000E+00  0.00000000E+00
  0.00000000E+00  0.00000000E+00  0.00000000E+00
  0.00000000E+00  0.00000000E+00  0.00000000E+00
  0.00000000E+00  0.00000000E+00  0.00000000E+00
  0.00000000E+00  0.00000000E+00  0.00000000E+00
  0.00000000E+00  0.00000000E+00  0.00000000E+00
  0.00000000E+00  0.00000000E+00  0.00000000E+00
  0.00000000E+00  0.00000000E+00  0.00000000E+00
  0.00000000E+00  0.00000000E+00  0.00000000E+00
  0.00000000E+00  0.00000000E+00  0.00000000E+00
  0.00000000E+00  0.00000000E+00  0.00000000E+00
  0.00000000E+00  0.00000000E+00  0.00000000E+00
  0.00000000E+00  0.00000000E+00  0.00000000E+00
  0.00000000E+00  0.00000000E+00  0.00000000E+00
  0.00000000E+00  0.00000000E+00  0.00000000E+00
  0.00000000E+00  0.00000000E+00  0.00000000E+00
  0.00000000E+00  0.00000000E+00  0.00000000E+00
  0.00000000E+00  0.00000000E+00  0.00000000E+00
  0.00000000E+00  0.00000000E+00  0.00000000E+00
  0.00000000E+00  0.00000000E+00  0.00000000E+00
  0.00000000E+00  0.00000000E+00  0.00000000E+00
  0.00000000E+00  0.00000000E+00  0.00000000E+00
  0.00000000E+00  0.00000000E+00  0.00000000E+00
  0.00000000E+00  0.00000000E+00  0.00000000E+00
  0.00000000E+00  0.00000000E+00  0.00000000E+00
  0.00000000E+00  0.00000000E+00  0.00000000E+00
  0.00000000E+00  0.00000000E+00  0.00000000E+00
  0.00000000E+00  0.00000000E+00  0.00000000E+00
  0.00000000E+00  0.00000000E+00  0.00000000E+00
  0.00000000E+00  0.00000000E+00  0.00000000E+00
  0.00000000E+00  0.00000000E+00  0.00000000E+00
  0.00000000E+00  0.00000000E+00  0.00000000E+00
  0.00000000E+00  0.00000000E+00  0.00000000E+00
  0.00000000E+00  0.00000000E+00  0.00000000E+00
  0.00000000E+00  0.00000000E+00  0.00000000E+00
  0.00000000E+00  0.00000000E+00  0.00000000E+00
  0.00000000E+00  0.00000000E+00  0.00000000E+00
  0.00000000E+00  0.00000000E+00  0.00000000E+00
  0.00000000E+00  0.00000000E+00  0.00000000E+00
  0.00000000E+00  0.00000000E+00  0.00000000E+00
  0.00000000E+00  0.00000000E+00  0.00000000E+00
  0.00000000E+00  0.00000000E+00  0.00000000E+00
  0.00000000E+00  0.00000000E+00  0.00000000E+00
  0.00000000E+00  0.00000000E+00  0.00000000E+00
  0.00000000E+00  0.00000000E+00  0.00000000E+00
  0.00000000E+00  0.00000000E+00  0.00000000E+00
  0.00000000E+00  0.00000000E+00  0.00000000E+00
  0.00000000E+00  0.00000000E+00  0.00000000E+00
  0.00000000E+00  0.00000000E+00  0.00000000E+00
  0.00000000E+00  0.00000000E+00  0.00000000E+00
  0.00000000E+00  0.00000000E+00  0.00000000E+00
  0.00000000E+00  0.00000000E+00  0.00000000E+00
  0.00000000E+00  0.00000000E+00  0.00000000E+00
  0.00000000E+00  0.00000000E+00  0.00000000E+00
  0.00000000E+00  0.00000000E+00  0.00000000E+00
  0.00000000E+00  0.00000000E+00  0.00000000E+00
  0.00000000E+00  0.00000000E+00  0.00000000E+00
  0.00000000E+00  0.00000000E+00  0.00000000E+00
  0.00000000E+00  0.00000000E+00  0.00000000E+00
  0.00000000E+00  0.00000000E+00  0.00000000E+00
  0.00000000E+00  0.00000000E+00  0.00000000E+00
  0.00000000E+00  0.00000000E+00  0.00000000E+00
  0.00000000E+00  0.00000000E+00  0.00000000E+00
  0.00000000E+00  0.00000000E+00  0.00000000E+00
  0.00000000E+00  0.00000000E+00  0.00000000E+00
  0.00000000E+00  0.00000000E+00  0.00000000E+00
  0.00000000E+00  0.00000000E+00  0.00000000E+00
  0.00000000E+00  0.00000000E+00  0.00000000E+00
  0.00000000E+00  0.00000000E+00  0.00000000E+00
  0.00000000E+00  0.00000000E+00  0.00000000E+00
  0.00000000E+00  0.00000000E+00  0.00000000E+00
  0.00000000E+00  0.00000000E+00  0.00000000E+00
  0.00000000E+00  0.00000000E+00  0.00000000E+00
  0.00000000E+00  0.00000000E+00  0.00000000E+00
  0.00000000E+00  0.00000000E+00  0.00000000E+00
  0.00000000E+00  0.00000000E+00  0.00000000E+00
  0.00000000E+00  0.00000000E+00  0.00000000E+00
  0.00000000E+00  0.00000000E+00  0.00000000E+00
  0.00000000E+00  0.00000000E+00  0.00000000E+00
  0.00000000E+00  0.00000000E+00  0.00000000E+00
  0.00000000E+00  0.00000000E+00  0.00000000E+00
  0.00000000E+00  0.00000000E+00  0.00000000E+00
  0.00000000E+00  0.00000000E+00  0.00000000E+00
  0.00000000E+00  0.00000000E+00  0.00000000E+00
  0.00000000E+00  0.00000000E+00  0.00000000E+00
  0.00000000E+00  0.00000000E+00  0.00000000E+00
  0.00000000E+00  0.00000000E+00  0.00000000E+00
  0.00000000E+00  0.00000000E+00  0.00000000E+00
  0.00000000E+00  0.00000000E+00  0.00000000E+00
  0.00000000E+00  0.00000000E+00  0.00000000E+00
  0.00000000E+00  0.00000000E+00  0.00000000E+00
  0.00000000E+00  0.00000000E+00  0.00000000E+00
  0.00000000E+00  0.00000000E+00  0.00000000E+00
  0.00000000E+00  0.00000000E+00  0.00000000E+00
  0.00000000E+00  0.00000000E+00  0.00000000E+00
  0.00000000E+00  0.00000000E+00  0.00000000E+00
  0.00000000E+00  0.00000000E+00  0.00000000E+00
  0.00000000E+00  0.00000000E+00  0.00000000E+00
  0.00000000E+00  0.00000000E+00  0.00000000E+00
  0.00000000E+00  0.00000000E+00  0.00000000E+00
  0.00000000E+00  0.00000000E+00  0.00000000E+00
  0.00000000E+00  0.00000000E+00  0.00000000E+00
  0.00000000E+00  0.00000000E+00  0.00000000E+00
  0.00000000E+00  0.00000000E+00  0.00000000E+00
  0.00000000E+00  0.00000000E+00  0.00000000E+00
  0.00000000E+00  0.00000000E+00  0.00000000E+00
  0.00000000E+00  0.00000000E+00  0.00000000E+00
  0.00000000E+00  0.00000000E+00  0.00000000E+00
  0.00000000E+00  0.00000000E+00  0.00000000E+00
  0.00000000E+00  0.00000000E+00  0.00000000E+00
  0.00000000E+00  0.00000000E+00  0.00000000E+00
  0.00000000E+00  0.00000000E+00  0.00000000E+00
  0.00000000E+00  0.00000000E+00  0.00000000E+00
  0.00000000E+00  0.00000000E+00  0.00000000E+00
  0.00000000E+00  0.00000000E+00  0.00000000E+00
  0.00000000E+00  0.00000000E+00  0.00000000E+00
  0.00000000E+00  0.00000000E+00  0.00000000E+00
  0.00000000E+00  0.00000000E+00  0.00000000E+00
  0.00000000E+00  0.00000000E+00  0.00000000E+00
  0.00000000E+00  0.00000000E+00  0.00000000E+00
  0.00000000E+00  0.00000000E+00  0.00000000E+00
  0.00000000E+00  0.00000000E+00  0.00000000E+00
  0.00000000E+00  0.00000000E+00  0.00000000E+00
  0.00000000E+00  0.00000000E+00  0.00000000E+00
  0.00000000E+00  0.00000000E+00  0.00000000E+00
  0.00000000E+00  0.00000000E+00  0.00000000E+00
