Ag  O  C  N  H                          
   1.00000000000000     
    17.3505005835000006    0.0000000000000000    0.0000000000000000
    -8.6752502918999994   15.0259742738999993    0.0000000000000000
     0.0000000000000000    0.0000000000000000   22.0832996367999996
   Ag   O    C    N    H 
   144     2     9     2    12
Selective dynamics
Direct
  0.0000000000000000  0.0000000000000000  0.0000000000000000   F   F   F
  0.9999999999987850  0.1666666666699967  0.0000000000000000   F   F   F
  0.1666666666683270  0.1666666666699967  0.0000000000000000   F   F   F
  0.1666666666695491  0.0000000000000000  0.0000000000000000   F   F   F
  0.0000000000000000  0.3333333333333357  0.0000000000000000   F   F   F
  0.0000000000045475  0.5000000000033253  0.0000000000000000   F   F   F
  0.1666666666683270  0.5000000000033253  0.0000000000000000   F   F   F
  0.1666666666637866  0.3333333333333357  0.0000000000000000   F   F   F
  0.0000000000000000  0.6666666666666643  0.0000000000000000   F   F   F
  0.9999999999954525  0.8333333333300033  0.0000000000000000   F   F   F
  0.1666666666650016  0.8333333333300033  0.0000000000000000   F   F   F
  0.1666666666637866  0.6666666666666643  0.0000000000000000   F   F   F
  0.3333333333333357  0.0000000000000000  0.0000000000000000   F   F   F
  0.3333333333321136  0.1666666666699967  0.0000000000000000   F   F   F
  0.5000000000016627  0.1666666666699967  0.0000000000000000   F   F   F
  0.5000000000028848  0.0000000000000000  0.0000000000000000   F   F   F
  0.3333333333333357  0.3333333333333357  0.0000000000000000   F   F   F
  0.3333333333321136  0.5000000000033253  0.0000000000000000   F   F   F
  0.5000000000016627  0.5000000000033253  0.0000000000000000   F   F   F
  0.5000000000028848  0.3333333333333357  0.0000000000000000   F   F   F
  0.3333333333333357  0.6666666666666643  0.0000000000000000   F   F   F
  0.3333333333287882  0.8333333333300033  0.0000000000000000   F   F   F
  0.4999999999983373  0.8333333333300033  0.0000000000000000   F   F   F
  0.5000000000028848  0.6666666666666643  0.0000000000000000   F   F   F
  0.6666666666666643  0.0000000000000000  0.0000000000000000   F   F   F
  0.6666666666654493  0.1666666666699967  0.0000000000000000   F   F   F
  0.8333333333349984  0.1666666666699967  0.0000000000000000   F   F   F
  0.8333333333362134  0.0000000000000000  0.0000000000000000   F   F   F
  0.6666666666666643  0.3333333333333357  0.0000000000000000   F   F   F
  0.6666666666654493  0.5000000000033253  0.0000000000000000   F   F   F
  0.8333333333349984  0.5000000000033253  0.0000000000000000   F   F   F
  0.8333333333304509  0.3333333333333357  0.0000000000000000   F   F   F
  0.6666666666666643  0.6666666666666643  0.0000000000000000   F   F   F
  0.6666666666621239  0.8333333333300033  0.0000000000000000   F   F   F
  0.8333333333316730  0.8333333333300033  0.0000000000000000   F   F   F
  0.8333333333362134  0.6666666666666643  0.0000000000000000   F   F   F
  0.2222233413339652  0.1111100016655797  0.1069199959984815   F   F   F
  0.2222233413333825  0.2777766586656512  0.1069199959984815   F   F   F
  0.0555566649984058  0.2777766586656512  0.1069199959984815   F   F   F
  0.0555566649989956  0.1111100016655797  0.1069199959984815   F   F   F
  0.2222233413339652  0.4444433349989154  0.1069199959984815   F   F   F
  0.2222233413333825  0.6111099919989869  0.1069199959984815   F   F   F
  0.0555566649984058  0.6111099919989869  0.1069199959984815   F   F   F
  0.0555566649989956  0.4444433349989154  0.1069199959984815   F   F   F
  0.2222233413339652  0.7777766683322440  0.1069199959984815   F   F   F
  0.2222233413333825  0.9444433253323226  0.1069199959984815   F   F   F
  0.0555566649984058  0.9444433253323226  0.1069199959984815   F   F   F
  0.0555566649989956  0.7777766683322440  0.1069199959984815   F   F   F
  0.5555566746673009  0.1111100016655797  0.1069199959984815   F   F   F
  0.5555566746667182  0.2777766586656512  0.1069199959984815   F   F   F
  0.3888899983317415  0.2777766586656512  0.1069199959984815   F   F   F
  0.3888899983323242  0.1111100016655797  0.1069199959984815   F   F   F
  0.5555566746673009  0.4444433349989154  0.1069199959984815   F   F   F
  0.5555566746667182  0.6111099919989869  0.1069199959984815   F   F   F
  0.3888899983317415  0.6111099919989869  0.1069199959984815   F   F   F
  0.3888899983323242  0.4444433349989154  0.1069199959984815   F   F   F
  0.5555566746673009  0.7777766683322440  0.1069199959984815   F   F   F
  0.5555566746667182  0.9444433253323226  0.1069199959984815   F   F   F
  0.3888899983317415  0.9444433253323226  0.1069199959984815   F   F   F
  0.3888899983323242  0.7777766683322440  0.1069199959984815   F   F   F
  0.8888900080006366  0.1111100016655797  0.1069199959984815   F   F   F
  0.8888900080000539  0.2777766586656512  0.1069199959984815   F   F   F
  0.7222233316650772  0.2777766586656512  0.1069199959984815   F   F   F
  0.7222233316656599  0.1111100016655797  0.1069199959984815   F   F   F
  0.8888900080006366  0.4444433349989154  0.1069199959984815   F   F   F
  0.8888900080000539  0.6111099919989869  0.1069199959984815   F   F   F
  0.7222233316650772  0.6111099919989869  0.1069199959984815   F   F   F
  0.7222233316656599  0.4444433349989154  0.1069199959984815   F   F   F
  0.8888900080006366  0.7777766683322440  0.1069199959984815   F   F   F
  0.8888900080000539  0.9444433253323226  0.1069199959984815   F   F   F
  0.7222233316650772  0.9444433253323226  0.1069199959984815   F   F   F
  0.7222233316656599  0.7777766683322440  0.1069199959984815   F   F   F
  0.1108213911111234  0.2219488720610048  0.2144126170946923   T   T   T
  0.1107270912273320  0.0548509747473450  0.2146542075283273   T   T   T
  0.2775697113634348  0.0550873996910474  0.2149195291028831   T   T   T
  0.2774321546653573  0.2214255612798987  0.2138943333376033   T   T   T
  0.1111339930222121  0.5556675905639746  0.2146042659157504   T   T   T
  0.1108525210517017  0.3889353098928666  0.2146158926972518   T   T   T
  0.2777101489267840  0.3889767397573431  0.2146443760826203   T   T   T
  0.2777247424564857  0.5554668945544061  0.2153219998552639   T   T   T
  0.1110821198051898  0.8887825931609541  0.2153565244850827   T   T   T
  0.1111897866898936  0.7223010052408080  0.2149833675138214   T   T   T
  0.2776400713459207  0.7223526464147949  0.2145805290665632   T   T   T
  0.2777683055263715  0.8888172318061693  0.2153317444822153   T   T   T
  0.4443918812246183  0.2219455161564622  0.2149816890423558   T   T   T
  0.4444018374952678  0.0554668940022627  0.2152526060314692   T   T   T
  0.6111123319643549  0.0555435256696507  0.2151423207061757   T   T   T
  0.6110935491265564  0.2219506858195083  0.2152364547521175   T   T   T
  0.4439060119517891  0.5549612843957628  0.2145279041663686   T   T   T
  0.4448139585157078  0.3885105393748624  0.2142396167052752   T   T   T
  0.6111492965363220  0.3883821295749981  0.2147235442391774   T   T   T
  0.6114880066200100  0.5557102903118664  0.2141911271654189   T   T   T
  0.4443917303705436  0.8890020292395806  0.2150089911422500   T   T   T
  0.4442320130365314  0.7225877706389202  0.2140087321144451   T   T   T
  0.6116639395162616  0.7226709354302695  0.2139272019238412   T   T   T
  0.6111586939354979  0.8889774900330319  0.2149544416416954   T   T   T
  0.7777907612580204  0.2221796990208450  0.2151652445392609   T   T   T
  0.7778187050799178  0.0555791470760238  0.2152294498154658   T   T   T
  0.9443435943715929  0.0554626755111863  0.2154129852662507   T   T   T
  0.9443520011325753  0.2221582074575797  0.2152686310678180   T   T   T
  0.7781340096578448  0.5556487048658081  0.2141606438621378   T   T   T
  0.7778114153577506  0.3886692651516130  0.2146744222266352   T   T   T
  0.9444090426839896  0.3888556634895756  0.2150606081516554   T   T   T
  0.9447483828176910  0.5557021571522370  0.2145264438248128   T   T   T
  0.7779233494200678  0.8890152155858791  0.2151227653696089   T   T   T
  0.7780514762751561  0.7224850805888188  0.2144759414078211   T   T   T
  0.9447615748077165  0.7224953272153775  0.2146287673949813   T   T   T
  0.9443704670304109  0.8888708565551273  0.2153504787966586   T   T   T
  0.9999594583609769  0.9999285067271724  0.3246391681352699   T   T   T
  0.0000356605327630  0.1666388731141705  0.3246365809062188   T   T   T
  0.1661562953623560  0.1661163640986514  0.3226372497392080   T   T   T
  0.1665619132854540  0.9999268237781838  0.3245899132755432   T   T   T
  0.9998551422089410  0.3332946578693695  0.3244935610902260   T   T   T
  0.0000254537862901  0.5001861769989181  0.3239434561628619   T   T   T
  0.1660646880363534  0.5000193452937735  0.3238285578546995   T   T   T
  0.1659540207206409  0.3328895510179578  0.3226959894924637   T   T   T
  0.0001131426931606  0.6668032430192220  0.3238872098711884   T   T   T
  0.9999687056762170  0.8332868740638228  0.3246194289027434   T   T   T
  0.1666541485571227  0.8333054046568928  0.3246054658730183   T   T   T
  0.1667821743710998  0.6668481472892857  0.3239872604471137   T   T   T
  0.3332800302543263  0.9998549768037100  0.3245969200003710   T   T   T
  0.3332756214036260  0.1659562193463980  0.3237435397966413   T   T   T
  0.4999976699628738  0.1663934021795244  0.3244813790886701   T   T   T
  0.5000306631365125  0.9997397884662580  0.3244656091101618   T   T   T
  0.3332300931472598  0.3321805483238750  0.3206494037724809   T   T   T
  0.3329980381952570  0.4999585474319076  0.3244491372336829   T   T   T
  0.5003907919198113  0.4995374676115772  0.3218757593570927   T   T   T
  0.5001867628716503  0.3327073653074490  0.3239520749868760   T   T   T
  0.3332904451946411  0.6669534572164899  0.3233391306154075   T   T   T
  0.3333348129508924  0.8333285495601835  0.3245785307770203   T   T   T
  0.4999324883407786  0.8332516433113744  0.3238761064746710   T   T   T
  0.5003948890682210  0.6669559112124928  0.3203602973258307   T   T   T
  0.6666256466543974  0.9997256416320698  0.3244306878013165   T   T   T
  0.6667016940297683  0.1663734070923003  0.3244164586914398   T   T   T
  0.8333532911183641  0.1665470234338849  0.3245684575175247   T   T   T
  0.8332900005340146  0.9999332197446794  0.3246438830450274   T   T   T
  0.6670371181681617  0.3329600083600578  0.3240985261219324   T   T   T
  0.6671323991089090  0.4996320428367217  0.3220377733526458   T   T   T
  0.8336979273946804  0.4999853006873463  0.3227251981044563   T   T   T
  0.8334900094775889  0.3332024912097742  0.3243811964385429   T   T   T
  0.6667951541579898  0.6666289481053138  0.3229790298556076   T   T   T
  0.6667214414931821  0.8331732304455374  0.3239494588888185   T   T   T
  0.8332785413046956  0.8332753190496690  0.3245532905739518   T   T   T
  0.8335427109366258  0.6668892801514024  0.3228043293321567   T   T   T
  0.6173115353107890  0.4481945324299814  0.4698381222090391   T   T   T
  0.7178616403159979  0.5977214664753897  0.4776319983108773   T   T   T
  0.4832405697305509  0.6540629968860617  0.4750376883322649   T   T   T
  0.4350987235027267  0.5545531178430940  0.4680761187717035   T   T   T
  0.3423652980244208  0.5057604296963826  0.4621741492535733   T   T   T
  0.2948328288351509  0.4128220392810544  0.4590825673733275   T   T   T
  0.3409828413564548  0.3653159459191662  0.4618985591879169   T   T   T
  0.4346041633789973  0.4128804325574433  0.4652075289319678   T   T   T
  0.4810718251798260  0.5060945944152520  0.4689776345602563   T   T   T
  0.6340161136947117  0.5255517960216314  0.4736769303420721   T   T   T
  0.7886774657308192  0.5769051669654991  0.4787251650158174   T   T   T
  0.5740414715385327  0.5554471664853344  0.4742788955426395   T   T   T
  0.2954067191153861  0.2731734962018909  0.4636231575697234   T   T   T
  0.3058862572652719  0.5419698716800814  0.4612556333575172   T   T   T
  0.2223057030033413  0.3771191267187135  0.4565000205001611   T   T   T
  0.4714700732215178  0.3773899761410071  0.4668844447814690   T   T   T
  0.6019996342480533  0.6227117190606588  0.4756471204142412   T   T   T
  0.2324819736815824  0.2418011171985573  0.4465401818852308   T   T   T
  0.3303566660550999  0.2426795139013553  0.4518834636864001   T   T   T
  0.5155921266942208  0.6752594198282494  0.5197644567334997   T   T   T
  0.4368609583211953  0.6793519175086410  0.4700458624666443   T   T   T
  0.5358615675178512  0.6885487345842061  0.4404668866690907   T   T   T
  0.8496967506651215  0.6398580066281117  0.4692106488632659   T   T   T
  0.7919819484600814  0.5508874643058367  0.5234894210371924   T   T   T
  0.7778616665012787  0.5272847320113434  0.4437706589387392   T   T   T
 
  0.00000000E+00  0.00000000E+00  0.00000000E+00
  0.00000000E+00  0.00000000E+00  0.00000000E+00
  0.00000000E+00  0.00000000E+00  0.00000000E+00
  0.00000000E+00  0.00000000E+00  0.00000000E+00
  0.00000000E+00  0.00000000E+00  0.00000000E+00
  0.00000000E+00  0.00000000E+00  0.00000000E+00
  0.00000000E+00  0.00000000E+00  0.00000000E+00
  0.00000000E+00  0.00000000E+00  0.00000000E+00
  0.00000000E+00  0.00000000E+00  0.00000000E+00
  0.00000000E+00  0.00000000E+00  0.00000000E+00
  0.00000000E+00  0.00000000E+00  0.00000000E+00
  0.00000000E+00  0.00000000E+00  0.00000000E+00
  0.00000000E+00  0.00000000E+00  0.00000000E+00
  0.00000000E+00  0.00000000E+00  0.00000000E+00
  0.00000000E+00  0.00000000E+00  0.00000000E+00
  0.00000000E+00  0.00000000E+00  0.00000000E+00
  0.00000000E+00  0.00000000E+00  0.00000000E+00
  0.00000000E+00  0.00000000E+00  0.00000000E+00
  0.00000000E+00  0.00000000E+00  0.00000000E+00
  0.00000000E+00  0.00000000E+00  0.00000000E+00
  0.00000000E+00  0.00000000E+00  0.00000000E+00
  0.00000000E+00  0.00000000E+00  0.00000000E+00
  0.00000000E+00  0.00000000E+00  0.00000000E+00
  0.00000000E+00  0.00000000E+00  0.00000000E+00
  0.00000000E+00  0.00000000E+00  0.00000000E+00
  0.00000000E+00  0.00000000E+00  0.00000000E+00
  0.00000000E+00  0.00000000E+00  0.00000000E+00
  0.00000000E+00  0.00000000E+00  0.00000000E+00
  0.00000000E+00  0.00000000E+00  0.00000000E+00
  0.00000000E+00  0.00000000E+00  0.00000000E+00
  0.00000000E+00  0.00000000E+00  0.00000000E+00
  0.00000000E+00  0.00000000E+00  0.00000000E+00
  0.00000000E+00  0.00000000E+00  0.00000000E+00
  0.00000000E+00  0.00000000E+00  0.00000000E+00
  0.00000000E+00  0.00000000E+00  0.00000000E+00
  0.00000000E+00  0.00000000E+00  0.00000000E+00
  0.00000000E+00  0.00000000E+00  0.00000000E+00
  0.00000000E+00  0.00000000E+00  0.00000000E+00
  0.00000000E+00  0.00000000E+00  0.00000000E+00
  0.00000000E+00  0.00000000E+00  0.00000000E+00
  0.00000000E+00  0.00000000E+00  0.00000000E+00
  0.00000000E+00  0.00000000E+00  0.00000000E+00
  0.00000000E+00  0.00000000E+00  0.00000000E+00
  0.00000000E+00  0.00000000E+00  0.00000000E+00
  0.00000000E+00  0.00000000E+00  0.00000000E+00
  0.00000000E+00  0.00000000E+00  0.00000000E+00
  0.00000000E+00  0.00000000E+00  0.00000000E+00
  0.00000000E+00  0.00000000E+00  0.00000000E+00
  0.00000000E+00  0.00000000E+00  0.00000000E+00
  0.00000000E+00  0.00000000E+00  0.00000000E+00
  0.00000000E+00  0.00000000E+00  0.00000000E+00
  0.00000000E+00  0.00000000E+00  0.00000000E+00
  0.00000000E+00  0.00000000E+00  0.00000000E+00
  0.00000000E+00  0.00000000E+00  0.00000000E+00
  0.00000000E+00  0.00000000E+00  0.00000000E+00
  0.00000000E+00  0.00000000E+00  0.00000000E+00
  0.00000000E+00  0.00000000E+00  0.00000000E+00
  0.00000000E+00  0.00000000E+00  0.00000000E+00
  0.00000000E+00  0.00000000E+00  0.00000000E+00
  0.00000000E+00  0.00000000E+00  0.00000000E+00
  0.00000000E+00  0.00000000E+00  0.00000000E+00
  0.00000000E+00  0.00000000E+00  0.00000000E+00
  0.00000000E+00  0.00000000E+00  0.00000000E+00
  0.00000000E+00  0.00000000E+00  0.00000000E+00
  0.00000000E+00  0.00000000E+00  0.00000000E+00
  0.00000000E+00  0.00000000E+00  0.00000000E+00
  0.00000000E+00  0.00000000E+00  0.00000000E+00
  0.00000000E+00  0.00000000E+00  0.00000000E+00
  0.00000000E+00  0.00000000E+00  0.00000000E+00
  0.00000000E+00  0.00000000E+00  0.00000000E+00
  0.00000000E+00  0.00000000E+00  0.00000000E+00
  0.00000000E+00  0.00000000E+00  0.00000000E+00
  0.00000000E+00  0.00000000E+00  0.00000000E+00
  0.00000000E+00  0.00000000E+00  0.00000000E+00
  0.00000000E+00  0.00000000E+00  0.00000000E+00
  0.00000000E+00  0.00000000E+00  0.00000000E+00
  0.00000000E+00  0.00000000E+00  0.00000000E+00
  0.00000000E+00  0.00000000E+00  0.00000000E+00
  0.00000000E+00  0.00000000E+00  0.00000000E+00
  0.00000000E+00  0.00000000E+00  0.00000000E+00
  0.00000000E+00  0.00000000E+00  0.00000000E+00
  0.00000000E+00  0.00000000E+00  0.00000000E+00
  0.00000000E+00  0.00000000E+00  0.00000000E+00
  0.00000000E+00  0.00000000E+00  0.00000000E+00
  0.00000000E+00  0.00000000E+00  0.00000000E+00
  0.00000000E+00  0.00000000E+00  0.00000000E+00
  0.00000000E+00  0.00000000E+00  0.00000000E+00
  0.00000000E+00  0.00000000E+00  0.00000000E+00
  0.00000000E+00  0.00000000E+00  0.00000000E+00
  0.00000000E+00  0.00000000E+00  0.00000000E+00
  0.00000000E+00  0.00000000E+00  0.00000000E+00
  0.00000000E+00  0.00000000E+00  0.00000000E+00
  0.00000000E+00  0.00000000E+00  0.00000000E+00
  0.00000000E+00  0.00000000E+00  0.00000000E+00
  0.00000000E+00  0.00000000E+00  0.00000000E+00
  0.00000000E+00  0.00000000E+00  0.00000000E+00
  0.00000000E+00  0.00000000E+00  0.00000000E+00
  0.00000000E+00  0.00000000E+00  0.00000000E+00
  0.00000000E+00  0.00000000E+00  0.00000000E+00
  0.00000000E+00  0.00000000E+00  0.00000000E+00
  0.00000000E+00  0.00000000E+00  0.00000000E+00
  0.00000000E+00  0.00000000E+00  0.00000000E+00
  0.00000000E+00  0.00000000E+00  0.00000000E+00
  0.00000000E+00  0.00000000E+00  0.00000000E+00
  0.00000000E+00  0.00000000E+00  0.00000000E+00
  0.00000000E+00  0.00000000E+00  0.00000000E+00
  0.00000000E+00  0.00000000E+00  0.00000000E+00
  0.00000000E+00  0.00000000E+00  0.00000000E+00
  0.00000000E+00  0.00000000E+00  0.00000000E+00
  0.00000000E+00  0.00000000E+00  0.00000000E+00
  0.00000000E+00  0.00000000E+00  0.00000000E+00
  0.00000000E+00  0.00000000E+00  0.00000000E+00
  0.00000000E+00  0.00000000E+00  0.00000000E+00
  0.00000000E+00  0.00000000E+00  0.00000000E+00
  0.00000000E+00  0.00000000E+00  0.00000000E+00
  0.00000000E+00  0.00000000E+00  0.00000000E+00
  0.00000000E+00  0.00000000E+00  0.00000000E+00
  0.00000000E+00  0.00000000E+00  0.00000000E+00
  0.00000000E+00  0.00000000E+00  0.00000000E+00
  0.00000000E+00  0.00000000E+00  0.00000000E+00
  0.00000000E+00  0.00000000E+00  0.00000000E+00
  0.00000000E+00  0.00000000E+00  0.00000000E+00
  0.00000000E+00  0.00000000E+00  0.00000000E+00
  0.00000000E+00  0.00000000E+00  0.00000000E+00
  0.00000000E+00  0.00000000E+00  0.00000000E+00
  0.00000000E+00  0.00000000E+00  0.00000000E+00
  0.00000000E+00  0.00000000E+00  0.00000000E+00
  0.00000000E+00  0.00000000E+00  0.00000000E+00
  0.00000000E+00  0.00000000E+00  0.00000000E+00
  0.00000000E+00  0.00000000E+00  0.00000000E+00
  0.00000000E+00  0.00000000E+00  0.00000000E+00
  0.00000000E+00  0.00000000E+00  0.00000000E+00
  0.00000000E+00  0.00000000E+00  0.00000000E+00
  0.00000000E+00  0.00000000E+00  0.00000000E+00
  0.00000000E+00  0.00000000E+00  0.00000000E+00
  0.00000000E+00  0.00000000E+00  0.00000000E+00
  0.00000000E+00  0.00000000E+00  0.00000000E+00
  0.00000000E+00  0.00000000E+00  0.00000000E+00
  0.00000000E+00  0.00000000E+00  0.00000000E+00
  0.00000000E+00  0.00000000E+00  0.00000000E+00
  0.00000000E+00  0.00000000E+00  0.00000000E+00
  0.00000000E+00  0.00000000E+00  0.00000000E+00
  0.00000000E+00  0.00000000E+00  0.00000000E+00
  0.00000000E+00  0.00000000E+00  0.00000000E+00
  0.00000000E+00  0.00000000E+00  0.00000000E+00
  0.00000000E+00  0.00000000E+00  0.00000000E+00
  0.00000000E+00  0.00000000E+00  0.00000000E+00
  0.00000000E+00  0.00000000E+00  0.00000000E+00
  0.00000000E+00  0.00000000E+00  0.00000000E+00
  0.00000000E+00  0.00000000E+00  0.00000000E+00
  0.00000000E+00  0.00000000E+00  0.00000000E+00
  0.00000000E+00  0.00000000E+00  0.00000000E+00
  0.00000000E+00  0.00000000E+00  0.00000000E+00
  0.00000000E+00  0.00000000E+00  0.00000000E+00
  0.00000000E+00  0.00000000E+00  0.00000000E+00
  0.00000000E+00  0.00000000E+00  0.00000000E+00
  0.00000000E+00  0.00000000E+00  0.00000000E+00
  0.00000000E+00  0.00000000E+00  0.00000000E+00
  0.00000000E+00  0.00000000E+00  0.00000000E+00
  0.00000000E+00  0.00000000E+00  0.00000000E+00
  0.00000000E+00  0.00000000E+00  0.00000000E+00
  0.00000000E+00  0.00000000E+00  0.00000000E+00
  0.00000000E+00  0.00000000E+00  0.00000000E+00
  0.00000000E+00  0.00000000E+00  0.00000000E+00
  0.00000000E+00  0.00000000E+00  0.00000000E+00
  0.00000000E+00  0.00000000E+00  0.00000000E+00
  0.00000000E+00  0.00000000E+00  0.00000000E+00
  0.00000000E+00  0.00000000E+00  0.00000000E+00
  0.00000000E+00  0.00000000E+00  0.00000000E+00
