H  C                                    
   1.00000000000000     
    20.0000000000000000    0.0000000000000000    0.0000000000000000
     0.0000000000000000   20.0000000000000000    0.0000000000000000
     0.0000000000000000    0.0000000000000000   20.0000000000000000
   H    C 
    26    12
Selective dynamics
Direct
  0.2080358184767605  0.5895682501575649  0.3198145587751142   T   T   T
  0.2700946303399471  0.5862139554664288  0.2564334943970841   T   T   T
  0.2469108840715330  0.6644884737495621  0.2917521041581465   T   T   T
  0.2949195794958525  0.6282232693944879  0.4029511031665118   T   T   T
  0.3567769148409555  0.6257872972789337  0.3400070824029740   T   T   T
  0.3384014568137061  0.5028583458875484  0.3257114181605572   T   T   T
  0.2752395163179755  0.5046366422155176  0.3873537375821256   T   T   T
  0.3586464023031985  0.5417999489904184  0.4729766890743906   T   T   T
  0.4222106270046527  0.5423683690869339  0.4116552810878313   T   T   T
  0.4070343037987356  0.4195399746812611  0.3934164352609018   T   T   T
  0.3417436641830806  0.4180927406537753  0.4528637092960154   T   T   T
  0.4210014327710155  0.4556116967063422  0.5421437773629629   T   T   T
  0.4865125022771107  0.4598580219837527  0.4830853658640388   T   T   T
  0.4764279614275463  0.3366237935553692  0.4621648484350472   T   T   T
  0.4103186495140639  0.3317289847136777  0.5206018837306998   T   T   T
  0.4869210625609083  0.3719355210323279  0.6113640561678421   T   T   T
  0.5527600135280917  0.3793575381446037  0.5530872694335514   T   T   T
  0.5465905488111208  0.2557040797645287  0.5305105182644543   T   T   T
  0.4818432301891394  0.2481719371050059  0.5900774874988902   T   T   T
  0.5589040876945895  0.2907140149889751  0.6796457847847612   T   T   T
  0.6233144115354033  0.3002459096062418  0.6199916876533832   T   T   T
  0.6199405866181016  0.1766617912599959  0.5969819804674402   T   T   T
  0.5565281341592143  0.1672355044412437  0.6576403448407495   T   T   T
  0.6987983644663449  0.2203503174056682  0.6856293835852052   T   T   T
  0.6691165549923498  0.1391075540849923  0.7066923505958697   T   T   T
  0.6351091708785764  0.2109454184097522  0.7467718345908925   T   T   T
  0.2557827098999965  0.6114321420100026  0.3032482025850030   F   F   F
  0.3096880888422967  0.6022352410013032  0.3565533010424027   T   T   T
  0.3226197875671962  0.5285595738988855  0.3720117937576722   T   T   T
  0.3751269741179041  0.5174138654049018  0.4262270758559562   T   T   T
  0.3890103365818189  0.4435409839646420  0.4398029863957868   T   T   T
  0.4400150294131727  0.4327525811872119  0.4955810103648354   T   T   T
  0.4566272917566083  0.3593231643819028  0.5084837549483765   T   T   T
  0.5073270929424397  0.3502099149775664  0.5648628914564259   T   T   T
  0.5268644326424060  0.2774726509698782  0.5772743100619288   T   T   T
  0.5789453096568857  0.2697915084847559  0.6325900694648882   T   T   T
  0.6006958118725703  0.1974991603712230  0.6443151397536123   T   T   T
  0.6538889027729023  0.1913754193722360  0.6988538881188013   T   T   T
 
  0.00000000E+00  0.00000000E+00  0.00000000E+00
  0.00000000E+00  0.00000000E+00  0.00000000E+00
  0.00000000E+00  0.00000000E+00  0.00000000E+00
  0.00000000E+00  0.00000000E+00  0.00000000E+00
  0.00000000E+00  0.00000000E+00  0.00000000E+00
  0.00000000E+00  0.00000000E+00  0.00000000E+00
  0.00000000E+00  0.00000000E+00  0.00000000E+00
  0.00000000E+00  0.00000000E+00  0.00000000E+00
  0.00000000E+00  0.00000000E+00  0.00000000E+00
  0.00000000E+00  0.00000000E+00  0.00000000E+00
  0.00000000E+00  0.00000000E+00  0.00000000E+00
  0.00000000E+00  0.00000000E+00  0.00000000E+00
  0.00000000E+00  0.00000000E+00  0.00000000E+00
  0.00000000E+00  0.00000000E+00  0.00000000E+00
  0.00000000E+00  0.00000000E+00  0.00000000E+00
  0.00000000E+00  0.00000000E+00  0.00000000E+00
  0.00000000E+00  0.00000000E+00  0.00000000E+00
  0.00000000E+00  0.00000000E+00  0.00000000E+00
  0.00000000E+00  0.00000000E+00  0.00000000E+00
  0.00000000E+00  0.00000000E+00  0.00000000E+00
  0.00000000E+00  0.00000000E+00  0.00000000E+00
  0.00000000E+00  0.00000000E+00  0.00000000E+00
  0.00000000E+00  0.00000000E+00  0.00000000E+00
  0.00000000E+00  0.00000000E+00  0.00000000E+00
  0.00000000E+00  0.00000000E+00  0.00000000E+00
  0.00000000E+00  0.00000000E+00  0.00000000E+00
  0.00000000E+00  0.00000000E+00  0.00000000E+00
  0.00000000E+00  0.00000000E+00  0.00000000E+00
  0.00000000E+00  0.00000000E+00  0.00000000E+00
  0.00000000E+00  0.00000000E+00  0.00000000E+00
  0.00000000E+00  0.00000000E+00  0.00000000E+00
  0.00000000E+00  0.00000000E+00  0.00000000E+00
  0.00000000E+00  0.00000000E+00  0.00000000E+00
  0.00000000E+00  0.00000000E+00  0.00000000E+00
  0.00000000E+00  0.00000000E+00  0.00000000E+00
  0.00000000E+00  0.00000000E+00  0.00000000E+00
  0.00000000E+00  0.00000000E+00  0.00000000E+00
  0.00000000E+00  0.00000000E+00  0.00000000E+00
