Cu  H                                   
   1.00000000000000     
     7.7078692191025500    0.0000000000000000    0.0000000000000000
     0.0000000000000000    7.7078692191025500    0.0000000000000000
     0.0000000000000000    0.0000000000000000   20.0000000000000000
   Cu   H 
    36     1
Selective dynamics
Direct
  0.1666666666666643  0.1666666666666643  0.0908381098887716   F   F   F
  0.1666666666666643  0.5000000000000000  0.0908381098887716   F   F   F
  0.1666666666666643  0.8333333333333286  0.0908381098887716   F   F   F
  0.5000000000000000  0.1666666666666643  0.0908381098887716   F   F   F
  0.5000000000000000  0.5000000000000000  0.0908381098887716   F   F   F
  0.5000000000000000  0.8333333333333286  0.0908381098887716   F   F   F
  0.8333333333333286  0.1666666666666643  0.0908381098887716   F   F   F
  0.8333333333333286  0.5000000000000000  0.0908381098887716   F   F   F
  0.8333333333333286  0.8333333333333286  0.0908381098887716   F   F   F
  0.0000000000000000  0.0000000000000000  0.1816762197775503   F   F   F
  0.0000000000000000  0.3333333333333286  0.1816762197775503   F   F   F
  0.0000000000000000  0.6666666666666643  0.1816762197775503   F   F   F
  0.3333333333333286  0.0000000000000000  0.1816762197775503   F   F   F
  0.3333333333333286  0.3333333333333286  0.1816762197775503   F   F   F
  0.3333333333333286  0.6666666666666643  0.1816762197775503   F   F   F
  0.6666666666666643  0.0000000000000000  0.1816762197775503   F   F   F
  0.6666666666666643  0.3333333333333286  0.1816762197775503   F   F   F
  0.6666666666666643  0.6666666666666643  0.1816762197775503   F   F   F
  0.1680366318293426  0.1682757138178884  0.2729055514670249   T   T   T
  0.1665259159885093  0.5000968355270935  0.2719011557974707   T   T   T
  0.1680287951491887  0.8319022544875225  0.2729115442232495   T   T   T
  0.4998524235050683  0.1668045880171427  0.2719025033278467   T   T   T
  0.4997933777873582  0.5000785138900657  0.2689420802347512   T   T   T
  0.4998364325240256  0.8333481695981754  0.2719029708470928   T   T   T
  0.8316842800081609  0.1682404872187100  0.2729001461512434   T   T   T
  0.8330769835647464  0.5000703782977115  0.2718999791410933   T   T   T
  0.8316654747346068  0.8318982605402928  0.2729032759685336   T   T   T
  0.9998507095881489  0.0001255154582609  0.3605442374836928   T   T   T
  0.9996345030277441  0.3328830642136993  0.3597998477355582   T   T   T
  0.9996033742769891  0.6673338471204998  0.3598038548626278   T   T   T
  0.3326330583038505  0.0001776629601843  0.3598004554961780   T   T   T
  0.3351363123131562  0.3357235934170922  0.3617716106724123   T   T   T
  0.3351035410368453  0.6646557906939830  0.3617839384836207   T   T   T
  0.6670865969741959  0.0001324819609589  0.3598008893924299   T   T   T
  0.6640734136851481  0.3356768599662764  0.3617433468915040   T   T   T
  0.6640456247042935  0.6645985195949653  0.3617520494138061   T   T   T
  0.4994483144384440  0.5001942945889885  0.3927967944128861   T   T   T
 
  0.00000000E+00  0.00000000E+00  0.00000000E+00
  0.00000000E+00  0.00000000E+00  0.00000000E+00
  0.00000000E+00  0.00000000E+00  0.00000000E+00
  0.00000000E+00  0.00000000E+00  0.00000000E+00
  0.00000000E+00  0.00000000E+00  0.00000000E+00
  0.00000000E+00  0.00000000E+00  0.00000000E+00
  0.00000000E+00  0.00000000E+00  0.00000000E+00
  0.00000000E+00  0.00000000E+00  0.00000000E+00
  0.00000000E+00  0.00000000E+00  0.00000000E+00
  0.00000000E+00  0.00000000E+00  0.00000000E+00
  0.00000000E+00  0.00000000E+00  0.00000000E+00
  0.00000000E+00  0.00000000E+00  0.00000000E+00
  0.00000000E+00  0.00000000E+00  0.00000000E+00
  0.00000000E+00  0.00000000E+00  0.00000000E+00
  0.00000000E+00  0.00000000E+00  0.00000000E+00
  0.00000000E+00  0.00000000E+00  0.00000000E+00
  0.00000000E+00  0.00000000E+00  0.00000000E+00
  0.00000000E+00  0.00000000E+00  0.00000000E+00
  0.00000000E+00  0.00000000E+00  0.00000000E+00
  0.00000000E+00  0.00000000E+00  0.00000000E+00
  0.00000000E+00  0.00000000E+00  0.00000000E+00
  0.00000000E+00  0.00000000E+00  0.00000000E+00
  0.00000000E+00  0.00000000E+00  0.00000000E+00
  0.00000000E+00  0.00000000E+00  0.00000000E+00
  0.00000000E+00  0.00000000E+00  0.00000000E+00
  0.00000000E+00  0.00000000E+00  0.00000000E+00
  0.00000000E+00  0.00000000E+00  0.00000000E+00
  0.00000000E+00  0.00000000E+00  0.00000000E+00
  0.00000000E+00  0.00000000E+00  0.00000000E+00
  0.00000000E+00  0.00000000E+00  0.00000000E+00
  0.00000000E+00  0.00000000E+00  0.00000000E+00
  0.00000000E+00  0.00000000E+00  0.00000000E+00
  0.00000000E+00  0.00000000E+00  0.00000000E+00
  0.00000000E+00  0.00000000E+00  0.00000000E+00
  0.00000000E+00  0.00000000E+00  0.00000000E+00
  0.00000000E+00  0.00000000E+00  0.00000000E+00
  0.00000000E+00  0.00000000E+00  0.00000000E+00
