Ru  H  C                                
   1.00000000000000     
    18.7899500611000008    0.0000000000000000    0.0000000000000000
     9.3949750305999995   16.2725740887999990    0.0000000000000000
     0.0000000000000000    0.0000000000000000   20.0000000000000000
   Ru   H    C 
   192    32    15
Selective dynamics
Direct
  0.0000000000019114  0.0833333333312822  0.0000000000000000   F   F   F
  0.1666666666657761  0.0000000000000000  0.0000000000000000   F   F   F
  0.0833333333309767  0.1666666666687178  0.0000000000000000   F   F   F
  0.2500000000032401  0.0833333333312822  0.0000000000000000   F   F   F
  0.4166666666671119  0.0000000000000000  0.0000000000000000   F   F   F
  0.3333333333323125  0.1666666666687178  0.0000000000000000   F   F   F
  0.9999999999992468  0.3333333333312822  0.0000000000000000   F   F   F
  0.1666666666684407  0.2500000000000000  0.0000000000000000   F   F   F
  0.0833333333336412  0.4166666666687178  0.0000000000000000   F   F   F
  0.2500000000005826  0.3333333333312822  0.0000000000000000   F   F   F
  0.4166666666697694  0.2500000000000000  0.0000000000000000   F   F   F
  0.3333333333349700  0.4166666666687178  0.0000000000000000   F   F   F
  0.0000000000000000  0.0000000000000000  0.1071978058550016   F   F   F
  0.0833333333321420  0.0833333333312822  0.1071978058550016   F   F   F
  0.1666666666665293  0.1666666666687178  0.1071978058550016   F   F   F
  0.2500000000013287  0.0000000000000000  0.1071978058550016   F   F   F
  0.3333333333334707  0.0833333333312822  0.1071978058550016   F   F   F
  0.4166666666678580  0.1666666666687178  0.1071978058550016   F   F   F
  0.9999999999973355  0.2500000000000000  0.1071978058550016   F   F   F
  0.0833333333347994  0.3333333333312822  0.1071978058550016   F   F   F
  0.1666666666638719  0.4166666666687178  0.1071978058550016   F   F   F
  0.2499999999986713  0.2500000000000000  0.1071978058550016   F   F   F
  0.3333333333361281  0.3333333333312822  0.1071978058550016   F   F   F
  0.4166666666652006  0.4166666666687178  0.1071978058550016   F   F   F
  0.0000090897492457  0.0833740157195492  0.2135106410081554   T   T   T
  0.1666413024086829  0.0000022108950169  0.2135370973241716   T   T   T
  0.0832711600008695  0.1666888293016167  0.2135955597909184   T   T   T
  0.2499863776252589  0.0833071086909072  0.2135854096843202   T   T   T
  0.4165954429170234 -0.0000156229666112  0.2134789725032625   T   T   T
  0.3333622371002102  0.1666095113896187  0.2134815910571946   T   T   T
  0.0000131637178258  0.3333129312138898  0.2135001981902134   T   T   T
  0.1666935376606870  0.2500200788921385  0.2135755103780479   T   T   T
  0.0834332391164861  0.4165382243922179  0.2134775866484712   T   T   T
  0.2500757382596913  0.3333257933973658  0.2138053230053509   T   T   T
  0.4166805940385808  0.2499438609905986  0.2135402591649422   T   T   T
  0.3334118073758855  0.4166850786288183  0.2136696027687799   T   T   T
  0.0000594181760320  0.9999497947103692  0.3163883389061926   T   T   T
  0.0833382456411489  0.0833205161508965  0.3165083375779781   T   T   T
  0.1666563619342558  0.1666358898423708  0.3165432734610809   T   T   T
  0.2499210178840469  0.0000191588411279  0.3166481416823057   T   T   T
  0.3333085646969850  0.0833394825796595  0.3165090752911088   T   T   T
  0.4166047618915266  0.1661767148117622  0.3164247893617784   T   T   T
 -0.0000049998351808  0.2499713418867311  0.3166268943947842   T   T   T
  0.0833424702699559  0.3333261437078616  0.3164972559817526   T   T   T
  0.1665886344958657  0.4167724559662373  0.3164984243984755   T   T   T
  0.2499301431389084  0.2498734070460873  0.3165736634019052   T   T   T
  0.3327020628145512  0.3335467680672435  0.3165769677981211   T   T   T
  0.4164721763664229  0.4171288170713365  0.3166981526525321   T   T   T
  0.0000000000019114  0.5833333333312822  0.0000000000000000   F   F   F
  0.1666666666657761  0.5000000000000000  0.0000000000000000   F   F   F
  0.0833333333309767  0.6666666666687178  0.0000000000000000   F   F   F
  0.2500000000032401  0.5833333333312822  0.0000000000000000   F   F   F
  0.4166666666671119  0.5000000000000000  0.0000000000000000   F   F   F
  0.3333333333323054  0.6666666666687178  0.0000000000000000   F   F   F
  0.9999999999992468  0.8333333333312822  0.0000000000000000   F   F   F
  0.1666666666684407  0.7500000000000000  0.0000000000000000   F   F   F
  0.0833333333336412  0.9166666666687178  0.0000000000000000   F   F   F
  0.2500000000005826  0.8333333333312822  0.0000000000000000   F   F   F
  0.4166666666644474  0.7500000000000000  0.0000000000000000   F   F   F
  0.3333333333296480  0.9166666666687178  0.0000000000000000   F   F   F
  0.0000000000000000  0.5000000000000000  0.1071978058550016   F   F   F
  0.0833333333321420  0.5833333333312822  0.1071978058550016   F   F   F
  0.1666666666665293  0.6666666666687178  0.1071978058550016   F   F   F
  0.2500000000013287  0.5000000000000000  0.1071978058550016   F   F   F
  0.3333333333334707  0.5833333333312822  0.1071978058550016   F   F   F
  0.4166666666678580  0.6666666666687178  0.1071978058550016   F   F   F
  0.9999999999973355  0.7500000000000000  0.1071978058550016   F   F   F
  0.0833333333347994  0.8333333333312822  0.1071978058550016   F   F   F
  0.1666666666638719  0.9166666666687178  0.1071978058550016   F   F   F
  0.2499999999986713  0.7500000000000000  0.1071978058550016   F   F   F
  0.3333333333361281  0.8333333333312822  0.1071978058550016   F   F   F
  0.4166666666652006  0.9166666666687178  0.1071978058550016   F   F   F
  0.0000405229407690  0.5833850597524907  0.2135046520958918   T   T   T
  0.1666269678973066  0.5000134922682324  0.2134743779108441   T   T   T
  0.0833245661115703  0.6666877935628651  0.2136070841752934   T   T   T
  0.2499933957758313  0.5833359718116984  0.2135347773105214   T   T   T
  0.4167156619197529  0.4998638198360947  0.2138375397540355   T   T   T
  0.3334394949188330  0.6665941321314879  0.2135211228093284   T   T   T
  0.0000015531127113  0.8333608051245369  0.2135461489383474   T   T   T
  0.1667121839510975  0.7499733111392862  0.2136078684362154   T   T   T
  0.0834180762079812  0.9165688957099917  0.2134997520082163   T   T   T
  0.2500047250123072  0.8333118166271236  0.2135891537580760   T   T   T
  0.4167477431391709  0.7499727035068847  0.2136104423571951   T   T   T
  0.3332945775631568  0.9167133441236233  0.2135858735174257   T   T   T
  0.0000372323193922  0.4999918598748544  0.3163739649721306   T   T   T
  0.0833364853372334  0.5833252603737188  0.3165058340205457   T   T   T
  0.1666516412534171  0.6666750483266761  0.3165716867534025   T   T   T
  0.2499085711606010  0.5000662021185116  0.3166456007423286   T   T   T
  0.3331951011580437  0.5834008891837198  0.3165650461094583   T   T   T
  0.4164645856979529  0.6667822010249832  0.3165062202307674   T   T   T
  0.9999872345939125  0.7500544296699959  0.3166530907028963   T   T   T
  0.0833422581293615  0.8333097894781738  0.3165077529121883   T   T   T
  0.1666488045873069  0.9166769160225419  0.3165014517291810   T   T   T
  0.2500059745586558  0.7500141037664362  0.3166221558936931   T   T   T
  0.3333244702733807  0.8333481486828156  0.3165457283463622   T   T   T
  0.4166587017531101  0.9166732636664077  0.3165025427153514   T   T   T
  0.5000000000045688  0.0833333333312822  0.0000000000000000   F   F   F
  0.6666666666684407  0.0000000000000000  0.0000000000000000   F   F   F
  0.5833333333336412  0.1666666666687178  0.0000000000000000   F   F   F
  0.7500000000005826  0.0833333333312822  0.0000000000000000   F   F   F
  0.9166666666697694  0.0000000000000000  0.0000000000000000   F   F   F
  0.8333333333349700  0.1666666666687178  0.0000000000000000   F   F   F
  0.5000000000019114  0.3333333333312822  0.0000000000000000   F   F   F
  0.6666666666657761  0.2500000000000000  0.0000000000000000   F   F   F
  0.5833333333309767  0.4166666666687178  0.0000000000000000   F   F   F
  0.7500000000032401  0.3333333333312822  0.0000000000000000   F   F   F
  0.9166666666671119  0.2500000000000000  0.0000000000000000   F   F   F
  0.8333333333323054  0.4166666666687178  0.0000000000000000   F   F   F
  0.5000000000026574  0.0000000000000000  0.1071978058550016   F   F   F
  0.5833333333347994  0.0833333333312822  0.1071978058550016   F   F   F
  0.6666666666691938  0.1666666666687178  0.1071978058550016   F   F   F
  0.7500000000039933  0.0000000000000000  0.1071978058550016   F   F   F
  0.8333333333361281  0.0833333333312822  0.1071978058550016   F   F   F
  0.9166666666652006  0.1666666666687178  0.1071978058550016   F   F   F
  0.5000000000000000  0.2500000000000000  0.1071978058550016   F   F   F
  0.5833333333374640  0.3333333333312822  0.1071978058550016   F   F   F
  0.6666666666665293  0.4166666666687178  0.1071978058550016   F   F   F
  0.7500000000013287  0.2500000000000000  0.1071978058550016   F   F   F
  0.8333333333334707  0.3333333333312822  0.1071978058550016   F   F   F
  0.9166666666678580  0.4166666666687178  0.1071978058550016   F   F   F
  0.4999728089493183  0.0833828171401724  0.2134522459038902   T   T   T
  0.6666381448941303  0.0000418656728884  0.2134781615117589   T   T   T
  0.5831826743594850  0.1667921098649357  0.2138740728827827   T   T   T
  0.7500232634364539  0.0833155459257710  0.2135702679991351   T   T   T
  0.9166333388691266 -0.0000271005856322  0.2135015824980012   T   T   T
  0.8333868440967607  0.1666454419358259  0.2134980169692287   T   T   T
  0.4999516846203822  0.3333642199034402  0.2134721782001925   T   T   T
  0.6666815767914323  0.2500719179112139  0.2136306813488105   T   T   T
  0.5833902026866563  0.4166016874831571  0.2134371974564014   T   T   T
  0.7499672632773138  0.3333266960100434  0.2136312763624405   T   T   T
  0.9167232547922718  0.2499531597331337  0.2135610585007148   T   T   T
  0.8332621171239440  0.4167601971196220  0.2136503556105105   T   T   T
  0.4999584874637116  0.0000397905685142  0.3163994443824071   T   T   T
  0.5833644877528462  0.0831880303064429  0.3164594822862877   T   T   T
  0.6667598352339787  0.1666433222672488  0.3165599001527781   T   T   T
  0.7499655945088118  0.0000470985464605  0.3166149696340706   T   T   T
  0.8334016204792765  0.0832971398070289  0.3164905357388408   T   T   T
  0.9167266087284359  0.1666131682758991  0.3165046276801093   T   T   T
  0.5006496636948926  0.2492453178675714  0.3167196047175240   T   T   T
  0.5837871170983104  0.3330429844288710  0.3164122683186021   T   T   T
  0.6669126297522385  0.4164105546471049  0.3164465744836755   T   T   T
  0.7500416173910450  0.2499446083771876  0.3166554322006182   T   T   T
  0.8333283791463623  0.3333399831450364  0.3165511322444342   T   T   T
  0.9166701013316435  0.4167010914501588  0.3164997486890907   T   T   T
  0.4999999999992468  0.5833333333312822  0.0000000000000000   F   F   F
  0.6666666666684407  0.5000000000000000  0.0000000000000000   F   F   F
  0.5833333333336412  0.6666666666687178  0.0000000000000000   F   F   F
  0.7500000000005826  0.5833333333312822  0.0000000000000000   F   F   F
  0.9166666666697694  0.5000000000000000  0.0000000000000000   F   F   F
  0.8333333333349700  0.6666666666687178  0.0000000000000000   F   F   F
  0.5000000000019114  0.8333333333312822  0.0000000000000000   F   F   F
  0.6666666666657761  0.7500000000000000  0.0000000000000000   F   F   F
  0.5833333333309767  0.9166666666687178  0.0000000000000000   F   F   F
  0.7500000000032401  0.8333333333312822  0.0000000000000000   F   F   F
  0.9166666666671119  0.7500000000000000  0.0000000000000000   F   F   F
  0.8333333333323054  0.9166666666687178  0.0000000000000000   F   F   F
  0.5000000000026574  0.5000000000000000  0.1071978058550016   F   F   F
  0.5833333333347994  0.5833333333312822  0.1071978058550016   F   F   F
  0.6666666666638719  0.6666666666687178  0.1071978058550016   F   F   F
  0.7499999999986713  0.5000000000000000  0.1071978058550016   F   F   F
  0.8333333333361281  0.5833333333312822  0.1071978058550016   F   F   F
  0.9166666666652006  0.6666666666687178  0.1071978058550016   F   F   F
  0.5000000000000000  0.7500000000000000  0.1071978058550016   F   F   F
  0.5833333333321420  0.8333333333312822  0.1071978058550016   F   F   F
  0.6666666666665293  0.9166666666687178  0.1071978058550016   F   F   F
  0.7500000000013287  0.7500000000000000  0.1071978058550016   F   F   F
  0.8333333333334707  0.8333333333312822  0.1071978058550016   F   F   F
  0.9166666666678580  0.9166666666687178  0.1071978058550016   F   F   F
  0.5001055818655797  0.5833031806221655  0.2137908900046682   T   T   T
  0.6665830217991844  0.5000814816423563  0.2134624778286592   T   T   T
  0.5832566070178485  0.6666799014651345  0.2137887110305280   T   T   T
  0.7500087970804742  0.5833324527816015  0.2135961912187237   T   T   T
  0.9166026336800760  0.5000205310488036  0.2134984515174534   T   T   T
  0.8333859163006637  0.6666506253914727  0.2134319030345889   T   T   T
  0.5000386279222607  0.8332916049322753  0.2135346696980152   T   T   T
  0.6667130808918754  0.7499797223852175  0.2137360768177715   T   T   T
  0.5834167203738889  0.9165516572711380  0.2135119610083265   T   T   T
  0.7500245131073442  0.8332928853306453  0.2135869401252587   T   T   T
  0.9167045317932472  0.7499958422531509  0.2135909843372379   T   T   T
  0.8333045769725689  0.9167300194572946  0.2135745213638819   T   T   T
  0.5001035931395015  0.4999418073131423  0.3167141184180879   T   T   T
  0.5832936230078231  0.5830804452612702  0.3168732376194415   T   T   T
  0.6668786534458858  0.6668290334257991  0.3169614738388809   T   T   T
  0.7505234571571601  0.4994112258293288  0.3164255562093156   T   T   T
  0.8336471470914935  0.5832085028587743  0.3163865654430729   T   T   T
  0.9166674576693485  0.6666555773233439  0.3165080235856935   T   T   T
  0.4995539872716222  0.7504232767869274  0.3167903934254924   T   T   T
  0.5832535316691083  0.8335767936435174  0.3164535572314560   T   T   T
  0.6666887937990493  0.9166297250029664  0.3164934442302309   T   T   T
  0.7502060626040631  0.7500990867196157  0.3165268247062469   T   T   T
  0.8333920858344012  0.8333300334911085  0.3165292565210992   T   T   T
  0.9167071686613151  0.9166459865519421  0.3164993198014299   T   T   T
  0.4108671465235449  0.1900992843129584  0.5509780463772694   T   T   T
  0.3835688906731506  0.1882214634248540  0.4668461573050217   T   T   T
  0.4024070458438025  0.3038689175891662  0.4370933340861120   T   T   T
  0.4932871332024601  0.2235353064875385  0.4732326774685157   T   T   T
  0.3664212810401644  0.3833906493299598  0.5404524723885192   T   T   T
  0.4595838861997940  0.3882575186385625  0.4504252293263383   T   T   T
  0.5451218283770588  0.3209220359802790  0.4998296897866461   T   T   T
  0.4903069220538189  0.4278312824320368  0.5921167733576068   T   T   T
  0.5208088219808775  0.4841159941629817  0.4568482608171163   T   T   T
  0.5985689633005640  0.4091211867914650  0.5086127933052574   T   T   T
  0.4839852988063474  0.5885716504651114  0.5480000127238728   T   T   T
  0.5857040556071300  0.5620735522941728  0.4540126717555399   T   T   T
  0.6660636816777004  0.5013143274741637  0.5104676801060348   T   T   T
  0.6142946037057935  0.6276663456353113  0.5854801067239861   T   T   T
  0.7328033680960229  0.5849241494404939  0.5077310191146653   T   T   T
  0.6731536931357653  0.6946715917185100  0.5129992539629212   T   T   T
  0.6637139033392566  0.6422217608364927  0.4422335281399464   T   T   T
  0.2854913503813069  0.3304822397534076  0.5660288495347580   T   T   T
  0.2565383007134727  0.2595634513427071  0.5357898510752248   T   T   T
  0.2604500665737309  0.3314889341215719  0.4801281862911232   T   T   T
  0.5278849090749230  0.2426730881326688  0.5967751382500276   T   T   T
  0.4271655918429727  0.2710974468431187  0.6249291472906525   T   T   T
  0.4659447255028736  0.3391393477196424  0.6369208378447266   T   T   T
  0.3708643571653721  0.5376162242014787  0.4828078115826174   T   T   T
  0.3818096712904586  0.5716840393935961  0.5633203093012393   T   T   T
  0.3415812407361750  0.5044212587921865  0.5559264550948061   T   T   T
  0.6359093333665518  0.4505543831975182  0.6182047446537557   T   T   T
  0.5328393910492916  0.4956112417445138  0.6475499016564293   T   T   T
  0.5821695557582377  0.5550202137020215  0.6447234517917760   T   T   T
  0.5071141488584608  0.7157172830184281  0.4631589362502058   T   T   T
  0.5207735489437417  0.7652639732337124  0.5340232762336689   T   T   T
  0.4689288969085120  0.7082186594949182  0.5427549575518418   T   T   T
  0.3807157565404051  0.2297285355689238  0.5073105507565520   T   T   T
  0.4292587495332226  0.2709946624344480  0.4850360488158814   T   T   T
  0.2908581040220858  0.2910569345204840  0.5233708369642671   T   T   T
  0.4304397164847442  0.3335105996249360  0.5336810309921601   T   T   T
  0.4800328103753220  0.3700524580222148  0.5030180363477210   T   T   T
  0.4646252993745857  0.2945632008010341  0.6020499732181255   T   T   T
  0.4744544829655125  0.4447045588049063  0.5391035169625997   T   T   T
  0.5375066882657313  0.4654422829225142  0.5098971517363665   T   T   T
  0.3872755640575136  0.5187471283617013  0.5354429451711074   T   T   T
  0.5453316785015848  0.5330618349751873  0.5463914563401850   T   T   T
  0.6028938270490236  0.5543654695436913  0.5078827687884289   T   T   T
  0.5754861035541751  0.5073533287125307  0.6183541690340318   T   T   T
  0.6028151757497262  0.6323212513388411  0.5310186403227520   T   T   T
  0.6723239522427292  0.6389321401668088  0.4973801280027609   T   T   T
  0.5201316876001052  0.7097347678335915  0.5174696850383799   T   T   T
 
  0.00000000E+00  0.00000000E+00  0.00000000E+00
  0.00000000E+00  0.00000000E+00  0.00000000E+00
  0.00000000E+00  0.00000000E+00  0.00000000E+00
  0.00000000E+00  0.00000000E+00  0.00000000E+00
  0.00000000E+00  0.00000000E+00  0.00000000E+00
  0.00000000E+00  0.00000000E+00  0.00000000E+00
  0.00000000E+00  0.00000000E+00  0.00000000E+00
  0.00000000E+00  0.00000000E+00  0.00000000E+00
  0.00000000E+00  0.00000000E+00  0.00000000E+00
  0.00000000E+00  0.00000000E+00  0.00000000E+00
  0.00000000E+00  0.00000000E+00  0.00000000E+00
  0.00000000E+00  0.00000000E+00  0.00000000E+00
  0.00000000E+00  0.00000000E+00  0.00000000E+00
  0.00000000E+00  0.00000000E+00  0.00000000E+00
  0.00000000E+00  0.00000000E+00  0.00000000E+00
  0.00000000E+00  0.00000000E+00  0.00000000E+00
  0.00000000E+00  0.00000000E+00  0.00000000E+00
  0.00000000E+00  0.00000000E+00  0.00000000E+00
  0.00000000E+00  0.00000000E+00  0.00000000E+00
  0.00000000E+00  0.00000000E+00  0.00000000E+00
  0.00000000E+00  0.00000000E+00  0.00000000E+00
  0.00000000E+00  0.00000000E+00  0.00000000E+00
  0.00000000E+00  0.00000000E+00  0.00000000E+00
  0.00000000E+00  0.00000000E+00  0.00000000E+00
  0.00000000E+00  0.00000000E+00  0.00000000E+00
  0.00000000E+00  0.00000000E+00  0.00000000E+00
  0.00000000E+00  0.00000000E+00  0.00000000E+00
  0.00000000E+00  0.00000000E+00  0.00000000E+00
  0.00000000E+00  0.00000000E+00  0.00000000E+00
  0.00000000E+00  0.00000000E+00  0.00000000E+00
  0.00000000E+00  0.00000000E+00  0.00000000E+00
  0.00000000E+00  0.00000000E+00  0.00000000E+00
  0.00000000E+00  0.00000000E+00  0.00000000E+00
  0.00000000E+00  0.00000000E+00  0.00000000E+00
  0.00000000E+00  0.00000000E+00  0.00000000E+00
  0.00000000E+00  0.00000000E+00  0.00000000E+00
  0.00000000E+00  0.00000000E+00  0.00000000E+00
  0.00000000E+00  0.00000000E+00  0.00000000E+00
  0.00000000E+00  0.00000000E+00  0.00000000E+00
  0.00000000E+00  0.00000000E+00  0.00000000E+00
  0.00000000E+00  0.00000000E+00  0.00000000E+00
  0.00000000E+00  0.00000000E+00  0.00000000E+00
  0.00000000E+00  0.00000000E+00  0.00000000E+00
  0.00000000E+00  0.00000000E+00  0.00000000E+00
  0.00000000E+00  0.00000000E+00  0.00000000E+00
  0.00000000E+00  0.00000000E+00  0.00000000E+00
  0.00000000E+00  0.00000000E+00  0.00000000E+00
  0.00000000E+00  0.00000000E+00  0.00000000E+00
  0.00000000E+00  0.00000000E+00  0.00000000E+00
  0.00000000E+00  0.00000000E+00  0.00000000E+00
  0.00000000E+00  0.00000000E+00  0.00000000E+00
  0.00000000E+00  0.00000000E+00  0.00000000E+00
  0.00000000E+00  0.00000000E+00  0.00000000E+00
  0.00000000E+00  0.00000000E+00  0.00000000E+00
  0.00000000E+00  0.00000000E+00  0.00000000E+00
  0.00000000E+00  0.00000000E+00  0.00000000E+00
  0.00000000E+00  0.00000000E+00  0.00000000E+00
  0.00000000E+00  0.00000000E+00  0.00000000E+00
  0.00000000E+00  0.00000000E+00  0.00000000E+00
  0.00000000E+00  0.00000000E+00  0.00000000E+00
  0.00000000E+00  0.00000000E+00  0.00000000E+00
  0.00000000E+00  0.00000000E+00  0.00000000E+00
  0.00000000E+00  0.00000000E+00  0.00000000E+00
  0.00000000E+00  0.00000000E+00  0.00000000E+00
  0.00000000E+00  0.00000000E+00  0.00000000E+00
  0.00000000E+00  0.00000000E+00  0.00000000E+00
  0.00000000E+00  0.00000000E+00  0.00000000E+00
  0.00000000E+00  0.00000000E+00  0.00000000E+00
  0.00000000E+00  0.00000000E+00  0.00000000E+00
  0.00000000E+00  0.00000000E+00  0.00000000E+00
  0.00000000E+00  0.00000000E+00  0.00000000E+00
  0.00000000E+00  0.00000000E+00  0.00000000E+00
  0.00000000E+00  0.00000000E+00  0.00000000E+00
  0.00000000E+00  0.00000000E+00  0.00000000E+00
  0.00000000E+00  0.00000000E+00  0.00000000E+00
  0.00000000E+00  0.00000000E+00  0.00000000E+00
  0.00000000E+00  0.00000000E+00  0.00000000E+00
  0.00000000E+00  0.00000000E+00  0.00000000E+00
  0.00000000E+00  0.00000000E+00  0.00000000E+00
  0.00000000E+00  0.00000000E+00  0.00000000E+00
  0.00000000E+00  0.00000000E+00  0.00000000E+00
  0.00000000E+00  0.00000000E+00  0.00000000E+00
  0.00000000E+00  0.00000000E+00  0.00000000E+00
  0.00000000E+00  0.00000000E+00  0.00000000E+00
  0.00000000E+00  0.00000000E+00  0.00000000E+00
  0.00000000E+00  0.00000000E+00  0.00000000E+00
  0.00000000E+00  0.00000000E+00  0.00000000E+00
  0.00000000E+00  0.00000000E+00  0.00000000E+00
  0.00000000E+00  0.00000000E+00  0.00000000E+00
  0.00000000E+00  0.00000000E+00  0.00000000E+00
  0.00000000E+00  0.00000000E+00  0.00000000E+00
  0.00000000E+00  0.00000000E+00  0.00000000E+00
  0.00000000E+00  0.00000000E+00  0.00000000E+00
  0.00000000E+00  0.00000000E+00  0.00000000E+00
  0.00000000E+00  0.00000000E+00  0.00000000E+00
  0.00000000E+00  0.00000000E+00  0.00000000E+00
  0.00000000E+00  0.00000000E+00  0.00000000E+00
  0.00000000E+00  0.00000000E+00  0.00000000E+00
  0.00000000E+00  0.00000000E+00  0.00000000E+00
  0.00000000E+00  0.00000000E+00  0.00000000E+00
  0.00000000E+00  0.00000000E+00  0.00000000E+00
  0.00000000E+00  0.00000000E+00  0.00000000E+00
  0.00000000E+00  0.00000000E+00  0.00000000E+00
  0.00000000E+00  0.00000000E+00  0.00000000E+00
  0.00000000E+00  0.00000000E+00  0.00000000E+00
  0.00000000E+00  0.00000000E+00  0.00000000E+00
  0.00000000E+00  0.00000000E+00  0.00000000E+00
  0.00000000E+00  0.00000000E+00  0.00000000E+00
  0.00000000E+00  0.00000000E+00  0.00000000E+00
  0.00000000E+00  0.00000000E+00  0.00000000E+00
  0.00000000E+00  0.00000000E+00  0.00000000E+00
  0.00000000E+00  0.00000000E+00  0.00000000E+00
  0.00000000E+00  0.00000000E+00  0.00000000E+00
  0.00000000E+00  0.00000000E+00  0.00000000E+00
  0.00000000E+00  0.00000000E+00  0.00000000E+00
  0.00000000E+00  0.00000000E+00  0.00000000E+00
  0.00000000E+00  0.00000000E+00  0.00000000E+00
  0.00000000E+00  0.00000000E+00  0.00000000E+00
  0.00000000E+00  0.00000000E+00  0.00000000E+00
  0.00000000E+00  0.00000000E+00  0.00000000E+00
  0.00000000E+00  0.00000000E+00  0.00000000E+00
  0.00000000E+00  0.00000000E+00  0.00000000E+00
  0.00000000E+00  0.00000000E+00  0.00000000E+00
  0.00000000E+00  0.00000000E+00  0.00000000E+00
  0.00000000E+00  0.00000000E+00  0.00000000E+00
  0.00000000E+00  0.00000000E+00  0.00000000E+00
  0.00000000E+00  0.00000000E+00  0.00000000E+00
  0.00000000E+00  0.00000000E+00  0.00000000E+00
  0.00000000E+00  0.00000000E+00  0.00000000E+00
  0.00000000E+00  0.00000000E+00  0.00000000E+00
  0.00000000E+00  0.00000000E+00  0.00000000E+00
  0.00000000E+00  0.00000000E+00  0.00000000E+00
  0.00000000E+00  0.00000000E+00  0.00000000E+00
  0.00000000E+00  0.00000000E+00  0.00000000E+00
  0.00000000E+00  0.00000000E+00  0.00000000E+00
  0.00000000E+00  0.00000000E+00  0.00000000E+00
  0.00000000E+00  0.00000000E+00  0.00000000E+00
  0.00000000E+00  0.00000000E+00  0.00000000E+00
  0.00000000E+00  0.00000000E+00  0.00000000E+00
  0.00000000E+00  0.00000000E+00  0.00000000E+00
  0.00000000E+00  0.00000000E+00  0.00000000E+00
  0.00000000E+00  0.00000000E+00  0.00000000E+00
  0.00000000E+00  0.00000000E+00  0.00000000E+00
  0.00000000E+00  0.00000000E+00  0.00000000E+00
  0.00000000E+00  0.00000000E+00  0.00000000E+00
  0.00000000E+00  0.00000000E+00  0.00000000E+00
  0.00000000E+00  0.00000000E+00  0.00000000E+00
  0.00000000E+00  0.00000000E+00  0.00000000E+00
  0.00000000E+00  0.00000000E+00  0.00000000E+00
  0.00000000E+00  0.00000000E+00  0.00000000E+00
  0.00000000E+00  0.00000000E+00  0.00000000E+00
  0.00000000E+00  0.00000000E+00  0.00000000E+00
  0.00000000E+00  0.00000000E+00  0.00000000E+00
  0.00000000E+00  0.00000000E+00  0.00000000E+00
  0.00000000E+00  0.00000000E+00  0.00000000E+00
  0.00000000E+00  0.00000000E+00  0.00000000E+00
  0.00000000E+00  0.00000000E+00  0.00000000E+00
  0.00000000E+00  0.00000000E+00  0.00000000E+00
  0.00000000E+00  0.00000000E+00  0.00000000E+00
  0.00000000E+00  0.00000000E+00  0.00000000E+00
  0.00000000E+00  0.00000000E+00  0.00000000E+00
  0.00000000E+00  0.00000000E+00  0.00000000E+00
  0.00000000E+00  0.00000000E+00  0.00000000E+00
  0.00000000E+00  0.00000000E+00  0.00000000E+00
  0.00000000E+00  0.00000000E+00  0.00000000E+00
  0.00000000E+00  0.00000000E+00  0.00000000E+00
  0.00000000E+00  0.00000000E+00  0.00000000E+00
  0.00000000E+00  0.00000000E+00  0.00000000E+00
  0.00000000E+00  0.00000000E+00  0.00000000E+00
  0.00000000E+00  0.00000000E+00  0.00000000E+00
  0.00000000E+00  0.00000000E+00  0.00000000E+00
  0.00000000E+00  0.00000000E+00  0.00000000E+00
  0.00000000E+00  0.00000000E+00  0.00000000E+00
  0.00000000E+00  0.00000000E+00  0.00000000E+00
  0.00000000E+00  0.00000000E+00  0.00000000E+00
  0.00000000E+00  0.00000000E+00  0.00000000E+00
  0.00000000E+00  0.00000000E+00  0.00000000E+00
  0.00000000E+00  0.00000000E+00  0.00000000E+00
  0.00000000E+00  0.00000000E+00  0.00000000E+00
  0.00000000E+00  0.00000000E+00  0.00000000E+00
  0.00000000E+00  0.00000000E+00  0.00000000E+00
  0.00000000E+00  0.00000000E+00  0.00000000E+00
  0.00000000E+00  0.00000000E+00  0.00000000E+00
  0.00000000E+00  0.00000000E+00  0.00000000E+00
  0.00000000E+00  0.00000000E+00  0.00000000E+00
  0.00000000E+00  0.00000000E+00  0.00000000E+00
  0.00000000E+00  0.00000000E+00  0.00000000E+00
  0.00000000E+00  0.00000000E+00  0.00000000E+00
  0.00000000E+00  0.00000000E+00  0.00000000E+00
  0.00000000E+00  0.00000000E+00  0.00000000E+00
  0.00000000E+00  0.00000000E+00  0.00000000E+00
  0.00000000E+00  0.00000000E+00  0.00000000E+00
  0.00000000E+00  0.00000000E+00  0.00000000E+00
  0.00000000E+00  0.00000000E+00  0.00000000E+00
  0.00000000E+00  0.00000000E+00  0.00000000E+00
  0.00000000E+00  0.00000000E+00  0.00000000E+00
  0.00000000E+00  0.00000000E+00  0.00000000E+00
  0.00000000E+00  0.00000000E+00  0.00000000E+00
  0.00000000E+00  0.00000000E+00  0.00000000E+00
  0.00000000E+00  0.00000000E+00  0.00000000E+00
  0.00000000E+00  0.00000000E+00  0.00000000E+00
  0.00000000E+00  0.00000000E+00  0.00000000E+00
  0.00000000E+00  0.00000000E+00  0.00000000E+00
  0.00000000E+00  0.00000000E+00  0.00000000E+00
  0.00000000E+00  0.00000000E+00  0.00000000E+00
  0.00000000E+00  0.00000000E+00  0.00000000E+00
  0.00000000E+00  0.00000000E+00  0.00000000E+00
  0.00000000E+00  0.00000000E+00  0.00000000E+00
  0.00000000E+00  0.00000000E+00  0.00000000E+00
  0.00000000E+00  0.00000000E+00  0.00000000E+00
  0.00000000E+00  0.00000000E+00  0.00000000E+00
  0.00000000E+00  0.00000000E+00  0.00000000E+00
  0.00000000E+00  0.00000000E+00  0.00000000E+00
  0.00000000E+00  0.00000000E+00  0.00000000E+00
  0.00000000E+00  0.00000000E+00  0.00000000E+00
  0.00000000E+00  0.00000000E+00  0.00000000E+00
  0.00000000E+00  0.00000000E+00  0.00000000E+00
  0.00000000E+00  0.00000000E+00  0.00000000E+00
  0.00000000E+00  0.00000000E+00  0.00000000E+00
  0.00000000E+00  0.00000000E+00  0.00000000E+00
  0.00000000E+00  0.00000000E+00  0.00000000E+00
  0.00000000E+00  0.00000000E+00  0.00000000E+00
  0.00000000E+00  0.00000000E+00  0.00000000E+00
  0.00000000E+00  0.00000000E+00  0.00000000E+00
  0.00000000E+00  0.00000000E+00  0.00000000E+00
  0.00000000E+00  0.00000000E+00  0.00000000E+00
  0.00000000E+00  0.00000000E+00  0.00000000E+00
  0.00000000E+00  0.00000000E+00  0.00000000E+00
  0.00000000E+00  0.00000000E+00  0.00000000E+00
  0.00000000E+00  0.00000000E+00  0.00000000E+00
  0.00000000E+00  0.00000000E+00  0.00000000E+00
  0.00000000E+00  0.00000000E+00  0.00000000E+00
  0.00000000E+00  0.00000000E+00  0.00000000E+00
  0.00000000E+00  0.00000000E+00  0.00000000E+00
  0.00000000E+00  0.00000000E+00  0.00000000E+00
  0.00000000E+00  0.00000000E+00  0.00000000E+00
  0.00000000E+00  0.00000000E+00  0.00000000E+00
  0.00000000E+00  0.00000000E+00  0.00000000E+00
  0.00000000E+00  0.00000000E+00  0.00000000E+00
