Au                                      
   1.00000000000000     
    10.1802357174756999    0.0000000000000000    0.0000000000000000
     5.0901178587378304    8.8163427478476297    0.0000000000000000
     0.0000000000000000    0.0000000000000000   20.0000000000000000
   Au
    48
Selective dynamics
Direct
  0.0000000000000000  0.0000000000000000  0.0000000000000000   F   F   F
  0.1666666666666643  0.1666666666666643  0.0000000000000000   F   F   F
  0.3333333333333357  0.3333333333333357  0.0000000000000000   F   F   F
  0.5000000000000000  0.0000000000000000  0.0000000000000000   F   F   F
  0.6666666666666643  0.1666666666666643  0.0000000000000000   F   F   F
  0.8333333333333357  0.3333333333333357  0.0000000000000000   F   F   F
  0.0000000000000000  0.5000000000000000  0.0000000000000000   F   F   F
  0.1666666666666643  0.6666666666666643  0.0000000000000000   F   F   F
  0.3333333333333357  0.8333333333333357  0.0000000000000000   F   F   F
  0.5000000000000000  0.5000000000000000  0.0000000000000000   F   F   F
  0.6666666666666643  0.6666666666666643  0.0000000000000000   F   F   F
  0.8333333333333357  0.8333333333333357  0.0000000000000000   F   F   F
  0.1666666666666643  0.0000000000000000  0.1199752284984115   F   F   F
  0.0000000000000000  0.3333333333333357  0.1199752284984115   F   F   F
  0.3333333333333357  0.1666666666666643  0.1199752284984115   F   F   F
  0.6666666666666643  0.0000000000000000  0.1199752284984115   F   F   F
  0.5000000000000000  0.3333333333333357  0.1199752284984115   F   F   F
  0.8333333333333357  0.1666666666666643  0.1199752284984115   F   F   F
  0.1666666666666643  0.5000000000000000  0.1199752284984115   F   F   F
  0.0000000000000000  0.8333333333333357  0.1199752284984115   F   F   F
  0.3333333333333357  0.6666666666666643  0.1199752284984115   F   F   F
  0.6666666666666643  0.5000000000000000  0.1199752284984115   F   F   F
  0.5000000000000000  0.8333333333333357  0.1199752284984115   F   F   F
  0.8333333333333357  0.6666666666666643  0.1199752284984115   F   F   F
  0.0000000000000000  0.1666666666666643  0.2379026571426790   T   T   T
  0.3333333333333357  0.0000000000000000  0.2379026571426790   T   T   T
  0.1666666666666643  0.3333333333333357  0.2379026571426790   T   T   T
  0.5000000000000000  0.1666666666666643  0.2379026571426790   T   T   T
  0.8333333333333357  0.0000000000000000  0.2379026571426790   T   T   T
  0.6666666666666643  0.3333333333333357  0.2379026571426790   T   T   T
  0.0000000000000000  0.6666666666666643  0.2379026571426790   T   T   T
  0.3333333333333357  0.5000000000000000  0.2379026571426790   T   T   T
  0.1666666666666643  0.8333333333333357  0.2379026571426790   T   T   T
  0.5000000000000000  0.6666666666666643  0.2379026571426790   T   T   T
  0.8333333333333357  0.5000000000000000  0.2379026571426790   T   T   T
  0.6666666666666643  0.8333333333333357  0.2379026571426790   T   T   T
  0.0000000000000000  0.0000000000000000  0.3582846921483752   T   T   T
  0.1666666666666643  0.1666666666666643  0.3582846921483752   T   T   T
  0.3333333333333357  0.3333333333333357  0.3582846921483752   T   T   T
  0.5000000000000000  0.0000000000000000  0.3582846921483752   T   T   T
  0.6666666666666643  0.1666666666666643  0.3582846921483752   T   T   T
  0.8333333333333357  0.3333333333333357  0.3582846921483752   T   T   T
  0.0000000000000000  0.5000000000000000  0.3582846921483752   T   T   T
  0.1666666666666643  0.6666666666666643  0.3582846921483752   T   T   T
  0.3333333333333357  0.8333333333333357  0.3582846921483752   T   T   T
  0.5000000000000000  0.5000000000000000  0.3582846921483752   T   T   T
  0.6666666666666643  0.6666666666666643  0.3582846921483752   T   T   T
  0.8333333333333357  0.8333333333333357  0.3582846921483752   T   T   T
 
  0.00000000E+00  0.00000000E+00  0.00000000E+00
  0.00000000E+00  0.00000000E+00  0.00000000E+00
  0.00000000E+00  0.00000000E+00  0.00000000E+00
  0.00000000E+00  0.00000000E+00  0.00000000E+00
  0.00000000E+00  0.00000000E+00  0.00000000E+00
  0.00000000E+00  0.00000000E+00  0.00000000E+00
  0.00000000E+00  0.00000000E+00  0.00000000E+00
  0.00000000E+00  0.00000000E+00  0.00000000E+00
  0.00000000E+00  0.00000000E+00  0.00000000E+00
  0.00000000E+00  0.00000000E+00  0.00000000E+00
  0.00000000E+00  0.00000000E+00  0.00000000E+00
  0.00000000E+00  0.00000000E+00  0.00000000E+00
  0.00000000E+00  0.00000000E+00  0.00000000E+00
  0.00000000E+00  0.00000000E+00  0.00000000E+00
  0.00000000E+00  0.00000000E+00  0.00000000E+00
  0.00000000E+00  0.00000000E+00  0.00000000E+00
  0.00000000E+00  0.00000000E+00  0.00000000E+00
  0.00000000E+00  0.00000000E+00  0.00000000E+00
  0.00000000E+00  0.00000000E+00  0.00000000E+00
  0.00000000E+00  0.00000000E+00  0.00000000E+00
  0.00000000E+00  0.00000000E+00  0.00000000E+00
  0.00000000E+00  0.00000000E+00  0.00000000E+00
  0.00000000E+00  0.00000000E+00  0.00000000E+00
  0.00000000E+00  0.00000000E+00  0.00000000E+00
  0.00000000E+00  0.00000000E+00  0.00000000E+00
  0.00000000E+00  0.00000000E+00  0.00000000E+00
  0.00000000E+00  0.00000000E+00  0.00000000E+00
  0.00000000E+00  0.00000000E+00  0.00000000E+00
  0.00000000E+00  0.00000000E+00  0.00000000E+00
  0.00000000E+00  0.00000000E+00  0.00000000E+00
  0.00000000E+00  0.00000000E+00  0.00000000E+00
  0.00000000E+00  0.00000000E+00  0.00000000E+00
  0.00000000E+00  0.00000000E+00  0.00000000E+00
  0.00000000E+00  0.00000000E+00  0.00000000E+00
  0.00000000E+00  0.00000000E+00  0.00000000E+00
  0.00000000E+00  0.00000000E+00  0.00000000E+00
  0.00000000E+00  0.00000000E+00  0.00000000E+00
  0.00000000E+00  0.00000000E+00  0.00000000E+00
  0.00000000E+00  0.00000000E+00  0.00000000E+00
  0.00000000E+00  0.00000000E+00  0.00000000E+00
  0.00000000E+00  0.00000000E+00  0.00000000E+00
  0.00000000E+00  0.00000000E+00  0.00000000E+00
  0.00000000E+00  0.00000000E+00  0.00000000E+00
  0.00000000E+00  0.00000000E+00  0.00000000E+00
  0.00000000E+00  0.00000000E+00  0.00000000E+00
  0.00000000E+00  0.00000000E+00  0.00000000E+00
  0.00000000E+00  0.00000000E+00  0.00000000E+00
  0.00000000E+00  0.00000000E+00  0.00000000E+00
