Ag 
 1.0000000000000000
    12.4401522270000005    0.0000000000000000    0.0000000000000000
     0.0000000000000000   11.7286879982999999    0.0000000000000000
     0.0000000000000000    0.0000000000000000   20.0000000000000000
 Ag 
  72
Selective dynamics
Cartesian
  2.0733587044999706  1.4660859998000002  0.0000000000000000   F   F   F
  6.2200761135000002  1.4660859998000002  0.0000000000000000   F   F   F
 10.3667935225000303  1.4660859998000002  0.0000000000000000   F   F   F
  2.0733587044999706  4.3982579994000011  0.0000000000000000   F   F   F
  6.2200761135000002  4.3982579994000011  0.0000000000000000   F   F   F
 10.3667935225000303  4.3982579994000011  0.0000000000000000   F   F   F
  2.0733587044999706  7.3304299988999979  0.0000000000000000   F   F   F
  6.2200761135000002  7.3304299988999979  0.0000000000000000   F   F   F
 10.3667935225000303  7.3304299988999979  0.0000000000000000   F   F   F
  2.0733587044999706 10.2626019984999992  0.0000000000000000   F   F   F
  6.2200761135000002 10.2626019984999992  0.0000000000000000   F   F   F
 10.3667935225000303 10.2626019984999992  0.0000000000000000   F   F   F
  0.0000000000000000  0.0000000000000000  1.4660859997999860   F   F   F
  4.1467174090000301  0.0000000000000000  1.4660859997999860   F   F   F
  8.2934348179999713  0.0000000000000000  1.4660859997999860   F   F   F
  0.0000000000000000  2.9321719996000004  1.4660859997999860   F   F   F
  4.1467174090000301  2.9321719996000004  1.4660859997999860   F   F   F
  8.2934348179999713  2.9321719996000004  1.4660859997999860   F   F   F
  0.0000000000000000  5.8643439990999973  1.4660859997999860   F   F   F
  4.1467174090000301  5.8643439990999973  1.4660859997999860   F   F   F
  8.2934348179999713  5.8643439990999973  1.4660859997999860   F   F   F
  0.0000000000000000  8.7965159986999986  1.4660859997999860   F   F   F
  4.1467174090000301  8.7965159986999986  1.4660859997999860   F   F   F
  8.2934348179999713  8.7965159986999986  1.4660859997999860   F   F   F
  2.0733587044999706  1.4660859998000002  2.9321719995999720   F   F   F
  6.2200761135000002  1.4660859998000002  2.9321719995999720   F   F   F
 10.3667935225000303  1.4660859998000002  2.9321719995999720   F   F   F
  2.0733587044999706  4.3982579994000011  2.9321719995999720   F   F   F
  6.2200761135000002  4.3982579994000011  2.9321719995999720   F   F   F
 10.3667935225000303  4.3982579994000011  2.9321719995999720   F   F   F
  2.0733587044999706  7.3304299988999979  2.9321719995999720   F   F   F
  6.2200761135000002  7.3304299988999979  2.9321719995999720   F   F   F
 10.3667935225000303  7.3304299988999979  2.9321719995999720   F   F   F
  2.0733587044999706 10.2626019984999992  2.9321719995999720   F   F   F
  6.2200761135000002 10.2626019984999992  2.9321719995999720   F   F   F
 10.3667935225000303 10.2626019984999992  2.9321719995999720   F   F   F
  0.0000000000000000  0.0000000000000000  4.3606362395999563   T   T   T
  4.1467174090000301  0.0000000000000000  4.3606362395999563   T   T   T
  8.2934348179999713  0.0000000000000000  4.3606362395999563   T   T   T
  0.0000000000000000  2.9321719996000004  4.3606362395999563   T   T   T
  4.1467174090000301  2.9321719996000004  4.3606362395999563   T   T   T
  8.2934348179999713  2.9321719996000004  4.3606362395999563   T   T   T
  0.0000000000000000  5.8643439990999973  4.3606362395999563   T   T   T
  4.1467174090000301  5.8643439990999973  4.3606362395999563   T   T   T
  8.2934348179999713  5.8643439990999973  4.3606362395999563   T   T   T
  0.0000000000000000  8.7965159986999986  4.3606362395999563   T   T   T
  4.1467174090000301  8.7965159986999986  4.3606362395999563   T   T   T
  8.2934348179999713  8.7965159986999986  4.3606362395999563   T   T   T
  2.0733587044999706  1.4660859998000002  5.8865080529000124   T   T   T
  6.2200761135000002  1.4660859998000002  5.8865080529000124   T   T   T
 10.3667935225000303  1.4660859998000002  5.8865080529000124   T   T   T
  2.0733587044999706  4.3982579994000011  5.8865080529000124   T   T   T
  6.2200761135000002  4.3982579994000011  5.8865080529000124   T   T   T
 10.3667935225000303  4.3982579994000011  5.8865080529000124   T   T   T
  2.0733587044999706  7.3304299988999979  5.8865080529000124   T   T   T
  6.2200761135000002  7.3304299988999979  5.8865080529000124   T   T   T
 10.3667935225000303  7.3304299988999979  5.8865080529000124   T   T   T
  2.0733587044999706 10.2626019984999992  5.8865080529000124   T   T   T
  6.2200761135000002 10.2626019984999992  5.8865080529000124   T   T   T
 10.3667935225000303 10.2626019984999992  5.8865080529000124   T   T   T
  0.0000000000000000  0.0000000000000000  7.2172598967999599   T   T   T
  4.1467174090000301  0.0000000000000000  7.2172598967999599   T   T   T
  8.2934348179999713  0.0000000000000000  7.2172598967999599   T   T   T
  0.0000000000000000  2.9321719996000004  7.2172598967999599   T   T   T
  4.1467174090000301  2.9321719996000004  7.2172598967999599   T   T   T
  8.2934348179999713  2.9321719996000004  7.2172598967999599   T   T   T
  0.0000000000000000  5.8643439990999973  7.2172598967999599   T   T   T
  4.1467174090000301  5.8643439990999973  7.2172598967999599   T   T   T
  8.2934348179999713  5.8643439990999973  7.2172598967999599   T   T   T
  0.0000000000000000  8.7965159986999986  7.2172598967999599   T   T   T
  4.1467174090000301  8.7965159986999986  7.2172598967999599   T   T   T
  8.2934348179999713  8.7965159986999986  7.2172598967999599   T   T   T
