Ru  C  H  O                             
   1.00000000000000     
    18.9881999495999985    0.0000000000000000    0.0000000000000000
    -5.4251999855999999    9.3967220160000000    0.0000000000000000
     0.0000000000000000    0.0000000000000000   21.4363579450000010
   Ru   C    H    O 
    84    10    14     3
Selective dynamics
Direct
  0.0476185722258506  0.1666675061083325  0.2001739733964882   F   F   F
  0.0476185722258506  0.4166675061083325  0.2001739733964882   F   F   F
  0.0476185722258506  0.6666675061083325  0.2001739733964882   F   F   F
  0.0476185722258506  0.9166675061083325  0.2001739733964882   F   F   F
  0.1904757150829965  0.1666675061083325  0.2001739733964882   F   F   F
  0.1904757150829965  0.4166675061083325  0.2001739733964882   F   F   F
  0.1904757150829965  0.6666675061083325  0.2001739733964882   F   F   F
  0.1904757150829965  0.9166675061083325  0.2001739733964882   F   F   F
  0.3333328579401353  0.1666675061083325  0.2001739733964882   F   F   F
  0.3333328579401353  0.4166675061083325  0.2001739733964882   F   F   F
  0.3333328579401353  0.6666675061083325  0.2001739733964882   F   F   F
  0.3333328579401353  0.9166675061083325  0.2001739733964882   F   F   F
  0.4761900007972812  0.1666675061083325  0.2001739733964882   F   F   F
  0.4761900007972812  0.4166675061083325  0.2001739733964882   F   F   F
  0.4761900007972812  0.6666675061083325  0.2001739733964882   F   F   F
  0.4761900007972812  0.9166675061083325  0.2001739733964882   F   F   F
  0.6190471436544200  0.1666675061083325  0.2001739733964882   F   F   F
  0.6190471436544200  0.4166675061083325  0.2001739733964882   F   F   F
  0.6190471436544200  0.6666675061083325  0.2001739733964882   F   F   F
  0.6190471436544200  0.9166675061083325  0.2001739733964882   F   F   F
  0.7619042865115659  0.1666675061083325  0.2001739733964882   F   F   F
  0.7619042865115659  0.4166675061083325  0.2001739733964882   F   F   F
  0.7619042865115659  0.6666675061083325  0.2001739733964882   F   F   F
  0.7619042865115659  0.9166675061083325  0.2001739733964882   F   F   F
  0.9047614293687047  0.1666675061083325  0.2001739733964882   F   F   F
  0.9047614293687047  0.4166675061083325  0.2001739733964882   F   F   F
  0.9047614293687047  0.6666675061083325  0.2001739733964882   F   F   F
  0.9047614293687047  0.9166675061083325  0.2001739733964882   F   F   F
  0.0952385748978628  0.0833325013410686  0.1000936681737272   F   F   F
  0.0952385748978628  0.3333325013410686  0.1000936681737272   F   F   F
  0.0952385748978628  0.5833325013410686  0.1000936681737272   F   F   F
  0.0952385748978628  0.8333325013410686  0.1000936681737272   F   F   F
  0.2380957177550087  0.0833325013410686  0.1000936681737272   F   F   F
  0.2380957177550087  0.3333325013410686  0.1000936681737272   F   F   F
  0.2380957177550087  0.5833325013410686  0.1000936681737272   F   F   F
  0.2380957177550087  0.8333325013410686  0.1000936681737272   F   F   F
  0.3809528606121475  0.0833325013410686  0.1000936681737272   F   F   F
  0.3809528606121475  0.3333325013410686  0.1000936681737272   F   F   F
  0.3809528606121475  0.5833325013410686  0.1000936681737272   F   F   F
  0.3809528606121475  0.8333325013410686  0.1000936681737272   F   F   F
  0.5238100034692934  0.0833325013410686  0.1000936681737272   F   F   F
  0.5238100034692934  0.3333325013410686  0.1000936681737272   F   F   F
  0.5238100034692934  0.5833325013410686  0.1000936681737272   F   F   F
  0.5238100034692934  0.8333325013410686  0.1000936681737272   F   F   F
  0.6666671463264322  0.0833325013410686  0.1000936681737272   F   F   F
  0.6666671463264322  0.3333325013410686  0.1000936681737272   F   F   F
  0.6666671463264322  0.5833325013410686  0.1000936681737272   F   F   F
  0.6666671463264322  0.8333325013410686  0.1000936681737272   F   F   F
  0.8095242891835781  0.0833325013410686  0.1000936681737272   F   F   F
  0.8095242891835781  0.3333325013410686  0.1000936681737272   F   F   F
  0.8095242891835781  0.5833325013410686  0.1000936681737272   F   F   F
  0.8095242891835781  0.8333325013410686  0.1000936681737272   F   F   F
  0.9523814320407240  0.0833325013410686  0.1000936681737272   F   F   F
  0.9523814320407240  0.3333325013410686  0.1000936681737272   F   F   F
  0.9523814320407240  0.5833325013410686  0.1000936681737272   F   F   F
  0.9523814320407240  0.8333325013410686  0.1000936681737272   F   F   F
  0.0476185722258506  0.1666675061083325  0.0000000214122196   F   F   F
  0.0476185722258506  0.4166675061083325  0.0000000214122196   F   F   F
  0.0476185722258506  0.6666675061083325  0.0000000214122196   F   F   F
  0.0476185722258506  0.9166675061083325  0.0000000214122196   F   F   F
  0.1904757150829965  0.1666675061083325  0.0000000214122196   F   F   F
  0.1904757150829965  0.4166675061083325  0.0000000214122196   F   F   F
  0.1904757150829965  0.6666675061083325  0.0000000214122196   F   F   F
  0.1904757150829965  0.9166675061083325  0.0000000214122196   F   F   F
  0.3333328579401353  0.1666675061083325  0.0000000214122196   F   F   F
  0.3333328579401353  0.4166675061083325  0.0000000214122196   F   F   F
  0.3333328579401353  0.6666675061083325  0.0000000214122196   F   F   F
  0.3333328579401353  0.9166675061083325  0.0000000214122196   F   F   F
  0.4761900007972812  0.1666675061083325  0.0000000214122196   F   F   F
  0.4761900007972812  0.4166675061083325  0.0000000214122196   F   F   F
  0.4761900007972812  0.6666675061083325  0.0000000214122196   F   F   F
  0.4761900007972812  0.9166675061083325  0.0000000214122196   F   F   F
  0.6190471436544200  0.1666675061083325  0.0000000214122196   F   F   F
  0.6190471436544200  0.4166675061083325  0.0000000214122196   F   F   F
  0.6190471436544200  0.6666675061083325  0.0000000214122196   F   F   F
  0.6190471436544200  0.9166675061083325  0.0000000214122196   F   F   F
  0.7619042865115659  0.1666675061083325  0.0000000214122196   F   F   F
  0.7619042865115659  0.4166675061083325  0.0000000214122196   F   F   F
  0.7619042865115659  0.6666675061083325  0.0000000214122196   F   F   F
  0.7619042865115659  0.9166675061083325  0.0000000214122196   F   F   F
  0.9047614293687047  0.1666675061083325  0.0000000214122196   F   F   F
  0.9047614293687047  0.4166675061083325  0.0000000214122196   F   F   F
  0.9047614293687047  0.6666675061083325  0.0000000214122196   F   F   F
  0.9047614293687047  0.9166675061083325  0.0000000214122196   F   F   F
  0.1965568138138588  0.4322718360373889  0.3013869080780602   T   T   T
  0.2849649232926598  0.5155533084930473  0.2973890084236769   T   T   T
  0.3280208583112340  0.6698100082837354  0.3005908589789364   T   T   T
  0.2800388597055968  0.7397856779620895  0.2945204135242074   T   T   T
  0.1923561090445805  0.6617554751712311  0.3000913843305485   T   T   T
  0.1528486300305179  0.5096822898472720  0.2993103361203752   T   T   T
  0.1938708598905445  0.2285599611192984  0.3493118231559650   T   T   T
  0.4070989913291424  0.7531006292318690  0.3365883417902041   T   T   T
  0.4575711100813590  0.6807544280474188  0.3449715016141863   T   T   T
  0.5420579939434192  0.7803048115591943  0.3711392538269843   T   T   T
  0.3181147445876413  0.4622352679786215  0.3127347699818529   T   T   T
  0.3105342477824711  0.8521254437773170  0.3090940385519170   T   T   T
  0.1599259488181072  0.7113628549671367  0.3203369078369791   T   T   T
  0.0547137230412447  0.3367896093331144  0.3213150217892063   T   T   T
  0.2467123812322366  0.2875696896867431  0.3803710000488025   T   T   T
  0.1484655106731111  0.1289180872564249  0.3711540057125948   T   T   T
  0.2158021295406460  0.2039186997807344  0.3051772455442212   T   T   T
  0.4450294691874437  0.8563237873484452  0.3113156193723933   T   T   T
  0.4238433044889367  0.5864116440754600  0.3749790224300108   T   T   T
  0.4338398381149968  0.8391281193049978  0.4205075374396817   T   T   T
  0.5390934584141903  0.8170579840018608  0.4185273486798155   T   T   T
  0.5780583825576138  0.7267098639525162  0.3739943390148134   T   T   T
  0.5750140615056942  0.8742329607076457  0.3408052577316038   T   T   T
  0.4639710163047925  0.6370012479883115  0.2991394723764510   T   T   T
  0.0705878364904552  0.4366803188411391  0.3123891992039378   T   T   T
  0.1545199020177947  0.3084743637873126  0.3372383450428226   T   T   T
  0.3841044065593803  0.7829876601262337  0.3965937183358189   T   T   T
 
  0.00000000E+00  0.00000000E+00  0.00000000E+00
  0.00000000E+00  0.00000000E+00  0.00000000E+00
  0.00000000E+00  0.00000000E+00  0.00000000E+00
  0.00000000E+00  0.00000000E+00  0.00000000E+00
  0.00000000E+00  0.00000000E+00  0.00000000E+00
  0.00000000E+00  0.00000000E+00  0.00000000E+00
  0.00000000E+00  0.00000000E+00  0.00000000E+00
  0.00000000E+00  0.00000000E+00  0.00000000E+00
  0.00000000E+00  0.00000000E+00  0.00000000E+00
  0.00000000E+00  0.00000000E+00  0.00000000E+00
  0.00000000E+00  0.00000000E+00  0.00000000E+00
  0.00000000E+00  0.00000000E+00  0.00000000E+00
  0.00000000E+00  0.00000000E+00  0.00000000E+00
  0.00000000E+00  0.00000000E+00  0.00000000E+00
  0.00000000E+00  0.00000000E+00  0.00000000E+00
  0.00000000E+00  0.00000000E+00  0.00000000E+00
  0.00000000E+00  0.00000000E+00  0.00000000E+00
  0.00000000E+00  0.00000000E+00  0.00000000E+00
  0.00000000E+00  0.00000000E+00  0.00000000E+00
  0.00000000E+00  0.00000000E+00  0.00000000E+00
  0.00000000E+00  0.00000000E+00  0.00000000E+00
  0.00000000E+00  0.00000000E+00  0.00000000E+00
  0.00000000E+00  0.00000000E+00  0.00000000E+00
  0.00000000E+00  0.00000000E+00  0.00000000E+00
  0.00000000E+00  0.00000000E+00  0.00000000E+00
  0.00000000E+00  0.00000000E+00  0.00000000E+00
  0.00000000E+00  0.00000000E+00  0.00000000E+00
  0.00000000E+00  0.00000000E+00  0.00000000E+00
  0.00000000E+00  0.00000000E+00  0.00000000E+00
  0.00000000E+00  0.00000000E+00  0.00000000E+00
  0.00000000E+00  0.00000000E+00  0.00000000E+00
  0.00000000E+00  0.00000000E+00  0.00000000E+00
  0.00000000E+00  0.00000000E+00  0.00000000E+00
  0.00000000E+00  0.00000000E+00  0.00000000E+00
  0.00000000E+00  0.00000000E+00  0.00000000E+00
  0.00000000E+00  0.00000000E+00  0.00000000E+00
  0.00000000E+00  0.00000000E+00  0.00000000E+00
  0.00000000E+00  0.00000000E+00  0.00000000E+00
  0.00000000E+00  0.00000000E+00  0.00000000E+00
  0.00000000E+00  0.00000000E+00  0.00000000E+00
  0.00000000E+00  0.00000000E+00  0.00000000E+00
  0.00000000E+00  0.00000000E+00  0.00000000E+00
  0.00000000E+00  0.00000000E+00  0.00000000E+00
  0.00000000E+00  0.00000000E+00  0.00000000E+00
  0.00000000E+00  0.00000000E+00  0.00000000E+00
  0.00000000E+00  0.00000000E+00  0.00000000E+00
  0.00000000E+00  0.00000000E+00  0.00000000E+00
  0.00000000E+00  0.00000000E+00  0.00000000E+00
  0.00000000E+00  0.00000000E+00  0.00000000E+00
  0.00000000E+00  0.00000000E+00  0.00000000E+00
  0.00000000E+00  0.00000000E+00  0.00000000E+00
  0.00000000E+00  0.00000000E+00  0.00000000E+00
  0.00000000E+00  0.00000000E+00  0.00000000E+00
  0.00000000E+00  0.00000000E+00  0.00000000E+00
  0.00000000E+00  0.00000000E+00  0.00000000E+00
  0.00000000E+00  0.00000000E+00  0.00000000E+00
  0.00000000E+00  0.00000000E+00  0.00000000E+00
  0.00000000E+00  0.00000000E+00  0.00000000E+00
  0.00000000E+00  0.00000000E+00  0.00000000E+00
  0.00000000E+00  0.00000000E+00  0.00000000E+00
  0.00000000E+00  0.00000000E+00  0.00000000E+00
  0.00000000E+00  0.00000000E+00  0.00000000E+00
  0.00000000E+00  0.00000000E+00  0.00000000E+00
  0.00000000E+00  0.00000000E+00  0.00000000E+00
  0.00000000E+00  0.00000000E+00  0.00000000E+00
  0.00000000E+00  0.00000000E+00  0.00000000E+00
  0.00000000E+00  0.00000000E+00  0.00000000E+00
  0.00000000E+00  0.00000000E+00  0.00000000E+00
  0.00000000E+00  0.00000000E+00  0.00000000E+00
  0.00000000E+00  0.00000000E+00  0.00000000E+00
  0.00000000E+00  0.00000000E+00  0.00000000E+00
  0.00000000E+00  0.00000000E+00  0.00000000E+00
  0.00000000E+00  0.00000000E+00  0.00000000E+00
  0.00000000E+00  0.00000000E+00  0.00000000E+00
  0.00000000E+00  0.00000000E+00  0.00000000E+00
  0.00000000E+00  0.00000000E+00  0.00000000E+00
  0.00000000E+00  0.00000000E+00  0.00000000E+00
  0.00000000E+00  0.00000000E+00  0.00000000E+00
  0.00000000E+00  0.00000000E+00  0.00000000E+00
  0.00000000E+00  0.00000000E+00  0.00000000E+00
  0.00000000E+00  0.00000000E+00  0.00000000E+00
  0.00000000E+00  0.00000000E+00  0.00000000E+00
  0.00000000E+00  0.00000000E+00  0.00000000E+00
  0.00000000E+00  0.00000000E+00  0.00000000E+00
  0.00000000E+00  0.00000000E+00  0.00000000E+00
  0.00000000E+00  0.00000000E+00  0.00000000E+00
  0.00000000E+00  0.00000000E+00  0.00000000E+00
  0.00000000E+00  0.00000000E+00  0.00000000E+00
  0.00000000E+00  0.00000000E+00  0.00000000E+00
  0.00000000E+00  0.00000000E+00  0.00000000E+00
  0.00000000E+00  0.00000000E+00  0.00000000E+00
  0.00000000E+00  0.00000000E+00  0.00000000E+00
  0.00000000E+00  0.00000000E+00  0.00000000E+00
  0.00000000E+00  0.00000000E+00  0.00000000E+00
  0.00000000E+00  0.00000000E+00  0.00000000E+00
  0.00000000E+00  0.00000000E+00  0.00000000E+00
  0.00000000E+00  0.00000000E+00  0.00000000E+00
  0.00000000E+00  0.00000000E+00  0.00000000E+00
  0.00000000E+00  0.00000000E+00  0.00000000E+00
  0.00000000E+00  0.00000000E+00  0.00000000E+00
  0.00000000E+00  0.00000000E+00  0.00000000E+00
  0.00000000E+00  0.00000000E+00  0.00000000E+00
  0.00000000E+00  0.00000000E+00  0.00000000E+00
  0.00000000E+00  0.00000000E+00  0.00000000E+00
  0.00000000E+00  0.00000000E+00  0.00000000E+00
  0.00000000E+00  0.00000000E+00  0.00000000E+00
  0.00000000E+00  0.00000000E+00  0.00000000E+00
  0.00000000E+00  0.00000000E+00  0.00000000E+00
  0.00000000E+00  0.00000000E+00  0.00000000E+00
  0.00000000E+00  0.00000000E+00  0.00000000E+00
  0.00000000E+00  0.00000000E+00  0.00000000E+00
