 O  N  C  H 
 1.0000000000000000
    12.4401522270000005    0.0000000000000000    0.0000000000000000
     0.0000000000000000   11.7286879982999999    0.0000000000000000
     0.0000000000000000    0.0000000000000000   20.0000000000000000
 O   N   C   H  
   2   4   8  10
Cartesian
  0.4700000000000000  2.5688000000000000  0.0006000000000000
 -3.1271000000000000 -0.4436000000000000 -0.0003000000000000
 -0.9686000000000000 -1.3125000000000000  0.0000000000000000
  2.2181999999999999  0.1412000000000000 -0.0003000000000000
 -1.3476999999999999  1.0797000000000001 -0.0001000000000000
  1.4118999999999999 -1.9372000000000000  0.0002000000000000
  0.8579000000000000  0.2592000000000000 -0.0008000000000000
  0.3897000000000000 -1.0264000000000000 -0.0004000000000000
  0.0307000000000000  1.4219999999999999 -0.0006000000000000
 -1.9060999999999999 -0.2495000000000000 -0.0004000000000000
  2.5032000000000001 -1.1998000000000000  0.0003000000000000
 -1.4276000000000000 -2.6960000000000002  0.0008000000000000
  3.1926000000000001  1.2060999999999999  0.0003000000000000
 -2.2968999999999999  2.1880999999999999  0.0007000000000000
  3.5163000000000002 -1.5787000000000000  0.0008000000000000
 -1.0450999999999999 -3.1972999999999998 -0.8937000000000000
 -2.5186000000000002 -2.7595999999999998  0.0011000000000000
 -1.0447000000000000 -3.1962999999999999  0.8957000000000001
  4.1992000000000003  0.7801000000000000  0.0002000000000000
  3.0468000000000002  1.8091999999999999 -0.8992000000000000
  3.0466000000000002  1.8083000000000000  0.9004000000000000
 -1.8087000000000000  3.1650999999999998 -0.0003000000000000
 -2.9321999999999999  2.1027000000000000  0.8881000000000000
 -2.9346000000000001  2.1021000000000001 -0.8849000000000000
