Ag  O  C  N  H                          
   1.00000000000000     
    17.3505005835000006    0.0000000000000000    0.0000000000000000
    -8.6752502918999994   15.0259742738999993    0.0000000000000000
     0.0000000000000000    0.0000000000000000   22.0832996367999996
   Ag   O    C    N    H 
   144     2     9     2    12
Selective dynamics
Direct
  0.0000000000000000  0.0000000000000000  0.0000000000000000   F   F   F
  0.9999999999987850  0.1666666666699967  0.0000000000000000   F   F   F
  0.1666666666683270  0.1666666666699967  0.0000000000000000   F   F   F
  0.1666666666695491  0.0000000000000000  0.0000000000000000   F   F   F
  0.0000000000000000  0.3333333333333357  0.0000000000000000   F   F   F
  0.0000000000045475  0.5000000000033253  0.0000000000000000   F   F   F
  0.1666666666683270  0.5000000000033253  0.0000000000000000   F   F   F
  0.1666666666637866  0.3333333333333357  0.0000000000000000   F   F   F
  0.0000000000000000  0.6666666666666643  0.0000000000000000   F   F   F
  0.9999999999954525  0.8333333333300033  0.0000000000000000   F   F   F
  0.1666666666650016  0.8333333333300033  0.0000000000000000   F   F   F
  0.1666666666637866  0.6666666666666643  0.0000000000000000   F   F   F
  0.3333333333333357  0.0000000000000000  0.0000000000000000   F   F   F
  0.3333333333321136  0.1666666666699967  0.0000000000000000   F   F   F
  0.5000000000016627  0.1666666666699967  0.0000000000000000   F   F   F
  0.5000000000028848  0.0000000000000000  0.0000000000000000   F   F   F
  0.3333333333333357  0.3333333333333357  0.0000000000000000   F   F   F
  0.3333333333321136  0.5000000000033253  0.0000000000000000   F   F   F
  0.5000000000016627  0.5000000000033253  0.0000000000000000   F   F   F
  0.5000000000028848  0.3333333333333357  0.0000000000000000   F   F   F
  0.3333333333333357  0.6666666666666643  0.0000000000000000   F   F   F
  0.3333333333287882  0.8333333333300033  0.0000000000000000   F   F   F
  0.4999999999983373  0.8333333333300033  0.0000000000000000   F   F   F
  0.5000000000028848  0.6666666666666643  0.0000000000000000   F   F   F
  0.6666666666666643  0.0000000000000000  0.0000000000000000   F   F   F
  0.6666666666654493  0.1666666666699967  0.0000000000000000   F   F   F
  0.8333333333349984  0.1666666666699967  0.0000000000000000   F   F   F
  0.8333333333362134  0.0000000000000000  0.0000000000000000   F   F   F
  0.6666666666666643  0.3333333333333357  0.0000000000000000   F   F   F
  0.6666666666654493  0.5000000000033253  0.0000000000000000   F   F   F
  0.8333333333349984  0.5000000000033253  0.0000000000000000   F   F   F
  0.8333333333304509  0.3333333333333357  0.0000000000000000   F   F   F
  0.6666666666666643  0.6666666666666643  0.0000000000000000   F   F   F
  0.6666666666621239  0.8333333333300033  0.0000000000000000   F   F   F
  0.8333333333316730  0.8333333333300033  0.0000000000000000   F   F   F
  0.8333333333362134  0.6666666666666643  0.0000000000000000   F   F   F
  0.2222233413339652  0.1111100016655797  0.1069199959984815   F   F   F
  0.2222233413333825  0.2777766586656512  0.1069199959984815   F   F   F
  0.0555566649984058  0.2777766586656512  0.1069199959984815   F   F   F
  0.0555566649989956  0.1111100016655797  0.1069199959984815   F   F   F
  0.2222233413339652  0.4444433349989154  0.1069199959984815   F   F   F
  0.2222233413333825  0.6111099919989869  0.1069199959984815   F   F   F
  0.0555566649984058  0.6111099919989869  0.1069199959984815   F   F   F
  0.0555566649989956  0.4444433349989154  0.1069199959984815   F   F   F
  0.2222233413339652  0.7777766683322440  0.1069199959984815   F   F   F
  0.2222233413333825  0.9444433253323226  0.1069199959984815   F   F   F
  0.0555566649984058  0.9444433253323226  0.1069199959984815   F   F   F
  0.0555566649989956  0.7777766683322440  0.1069199959984815   F   F   F
  0.5555566746673009  0.1111100016655797  0.1069199959984815   F   F   F
  0.5555566746667182  0.2777766586656512  0.1069199959984815   F   F   F
  0.3888899983317415  0.2777766586656512  0.1069199959984815   F   F   F
  0.3888899983323242  0.1111100016655797  0.1069199959984815   F   F   F
  0.5555566746673009  0.4444433349989154  0.1069199959984815   F   F   F
  0.5555566746667182  0.6111099919989869  0.1069199959984815   F   F   F
  0.3888899983317415  0.6111099919989869  0.1069199959984815   F   F   F
  0.3888899983323242  0.4444433349989154  0.1069199959984815   F   F   F
  0.5555566746673009  0.7777766683322440  0.1069199959984815   F   F   F
  0.5555566746667182  0.9444433253323226  0.1069199959984815   F   F   F
  0.3888899983317415  0.9444433253323226  0.1069199959984815   F   F   F
  0.3888899983323242  0.7777766683322440  0.1069199959984815   F   F   F
  0.8888900080006366  0.1111100016655797  0.1069199959984815   F   F   F
  0.8888900080000539  0.2777766586656512  0.1069199959984815   F   F   F
  0.7222233316650772  0.2777766586656512  0.1069199959984815   F   F   F
  0.7222233316656599  0.1111100016655797  0.1069199959984815   F   F   F
  0.8888900080006366  0.4444433349989154  0.1069199959984815   F   F   F
  0.8888900080000539  0.6111099919989869  0.1069199959984815   F   F   F
  0.7222233316650772  0.6111099919989869  0.1069199959984815   F   F   F
  0.7222233316656599  0.4444433349989154  0.1069199959984815   F   F   F
  0.8888900080006366  0.7777766683322440  0.1069199959984815   F   F   F
  0.8888900080000539  0.9444433253323226  0.1069199959984815   F   F   F
  0.7222233316650772  0.9444433253323226  0.1069199959984815   F   F   F
  0.7222233316656599  0.7777766683322440  0.1069199959984815   F   F   F
  0.1106966763799121  0.2218704428572402  0.2142450182197933   T   T   T
  0.1110669536359577  0.0553827509318399  0.2145086487290755   T   T   T
  0.2778150784962962  0.0555123835718377  0.2146934770570800   T   T   T
  0.2777462683414774  0.2220142455991096  0.2145378733972753   T   T   T
  0.1107852934371633  0.5558753421297794  0.2150666515336160   T   T   T
  0.1106641428478614  0.3892289524884465  0.2142588394351776   T   T   T
  0.2775229247756587  0.3888753326146956  0.2138734566036550   T   T   T
  0.2771975675306175  0.5561141361426150  0.2140157863250330   T   T   T
  0.1112313291017048  0.8888904617900215  0.2149135684689159   T   T   T
  0.1111104013238104  0.7223082223238871  0.2152069590979498   T   T   T
  0.2775024742330973  0.7225548278954262  0.2151659559778931   T   T   T
  0.2777423034805335  0.8889749997958324  0.2153263866311353   T   T   T
  0.4445745546147450  0.2223123495017000  0.2154056711143757   T   T   T
  0.4444450148639071  0.0555955180986048  0.2150804260011194   T   T   T
  0.6111009841658249  0.0556313631895873  0.2151402926143009   T   T   T
  0.6111264947754161  0.2222092224868903  0.2151365185679915   T   T   T
  0.4443878172884669  0.5560327633607968  0.2141368714107176   T   T   T
  0.4446007195629815  0.3889833532157077  0.2153774755852628   T   T   T
  0.6110582347288573  0.3887241349004814  0.2146834287760132   T   T   T
  0.6110512594225649  0.5557425407027978  0.2144991070487505   T   T   T
  0.4442033948054995  0.8890968644054650  0.2152171721621638   T   T   T
  0.4440897146089328  0.7226984387893010  0.2145336754216095   T   T   T
  0.6109999136465305  0.7228729363714381  0.2142400549133887   T   T   T
  0.6108681045911882  0.8892987038885971  0.2149441014849375   T   T   T
  0.7777733851453590  0.2222510820707368  0.2151745069924138   T   T   T
  0.7777115433785753  0.0557284996834913  0.2149760684427441   T   T   T
  0.9443332677729603  0.0554899580854779  0.2148188806328727   T   T   T
  0.9443853701620855  0.2222122507853453  0.2150059902124560   T   T   T
  0.7781969398322645  0.5555405924311981  0.2140310671474811   T   T   T
  0.7778058361468975  0.3888834627087385  0.2151141608555048   T   T   T
  0.9443412524665584  0.3888979215829008  0.2153137662850808   T   T   T
  0.9444460679668708  0.5555601231171360  0.2151290511320327   T   T   T
  0.7775695692510178  0.8892679394550043  0.2144501592990726   T   T   T
  0.7779873258062370  0.7225007775368150  0.2139554106618412   T   T   T
  0.9447310780072450  0.7223650407371834  0.2145828775754533   T   T   T
  0.9447472730397892  0.8891031713353048  0.2144117772270811   T   T   T
  0.0000654095109648  0.0001954504435816  0.3239167660245834   T   T   T
  0.9998388225883830  0.1666926462391908  0.3239014258027528   T   T   T
  0.1662979891208090  0.1664478515120608  0.3228629578338984   T   T   T
  0.1666623450537519  0.0001716825947753  0.3239387353718182   T   T   T
  0.9996859015760410  0.3334198900800974  0.3244145849793606   T   T   T
  0.9997625015406716  0.5002095482124284  0.3245574901215117   T   T   T
  0.1659095906027449  0.5001317461462245  0.3239207096722347   T   T   T
  0.1654392404372300  0.3334278712900363  0.3217028793655985   T   T   T
  0.9999037996454468  0.6669470595626844  0.3243715205234637   T   T   T
  0.0000788485176026  0.8335227567908602  0.3238712798785018   T   T   T
  0.1665922432290403  0.8335200161749605  0.3245318574355471   T   T   T
  0.1664644439697301  0.6667849227413016  0.3245952547022594   T   T   T
  0.3333276772515875  0.0003180032060921  0.3244034737191698   T   T   T
  0.3331859627412681  0.1665485211265237  0.3238076826191418   T   T   T
  0.5000619435679304  0.1668943012244764  0.3245295745888490   T   T   T
  0.4999671070283956  0.0003480254764502  0.3244347886950330   T   T   T
  0.3325757372837242  0.3331757300158329  0.3221326852446613   T   T   T
  0.3318126981222306  0.5005024965304168  0.3208358982676464   T   T   T
  0.4995445255011597  0.5017852952450764  0.3225975884371867   T   T   T
  0.5003905852478655  0.3338466366672707  0.3244089825569361   T   T   T
  0.3329445623669173  0.6670656598774946  0.3240477492938914   T   T   T
  0.3331335500017759  0.8335637702275261  0.3246341172058034   T   T   T
  0.4997689820956291  0.8338749378761249  0.3242132494264832   T   T   T
  0.4994491817159395  0.6679787406937426  0.3227712416653805   T   T   T
  0.6666526790907087  0.0004190508904436  0.3243660330914128   T   T   T
  0.6666571407734306  0.1669482558032257  0.3244913631489460   T   T   T
  0.8333032479621245  0.1669635971259692  0.3243965961210436   T   T   T
  0.8333952492640030  0.0004690792811228  0.3240968538666653   T   T   T
  0.6667208770827988  0.3337287062891960  0.3243675070596231   T   T   T
  0.6671789451175040  0.5006778894198768  0.3218777441426579   T   T   T
  0.8332376444229013  0.5002674459178917  0.3243380260890382   T   T   T
  0.8331774922977332  0.3335002594756481  0.3245057062464522   T   T   T
  0.6669725176606376  0.6683804906826124  0.3215839697691606   T   T   T
  0.6667780654732807  0.8343893002574718  0.3237676799934802   T   T   T
  0.8338057384802947  0.8343434242175745  0.3220333848784783   T   T   T
  0.8334888469978800  0.6669931657325332  0.3223402976175380   T   T   T
  0.6465641257657615  0.6725915416465261  0.4649028793442459   T   T   T
  0.7600332879510387  0.6415809616695027  0.4741286418434300   T   T   T
  0.2418808559112318  0.3042178232226407  0.4721289788385082   T   T   T
  0.3406679501859288  0.3630297515092052  0.4652458224159443   T   T   T
  0.3982631593635856  0.3284060573731719  0.4647424947032049   T   T   T
  0.4907898602100094  0.3825891005413482  0.4637024719442526   T   T   T
  0.5283581207865548  0.4757373033448086  0.4631676786332817   T   T   T
  0.4725926420217918  0.5125687761713875  0.4602685228973696   T   T   T
  0.3793003203759305  0.4569042550189767  0.4626430156897405   T   T   T
  0.6728251936356229  0.6188543769793972  0.4681052309978419   T   T   T
  0.8210845110389139  0.7361640527928925  0.4788741923178741   T   T   T
  0.3260316856115043  0.4950370963331301  0.4646656568299461   T   T   T
  0.6214325379690828  0.5277095587146533  0.4657721536691464   T   T   T
  0.3694405960909451  0.2562458366917851  0.4661517467933196   T   T   T
  0.5336424378384683  0.3532691548092182  0.4654251617380645   T   T   T
  0.5016175504103042  0.5845241262710402  0.4600339028741318   T   T   T
  0.2610946219127049  0.4570936532489551  0.4525925079318062   T   T   T
  0.3538869802875754  0.5600082284888432  0.4523728063776528   T   T   T
  0.6554763043088364  0.4941105512509662  0.4672451203449014   T   T   T
  0.2186650984208538  0.3158173980910555  0.5158875253481142   T   T   T
  0.2226585916254185  0.2336550464521591  0.4691165016037250   T   T   T
  0.2045787270078100  0.3164076017084760  0.4362966483028942   T   T   T
  0.8875956243254155  0.7440703894433200  0.4749771310172308   T   T   T
  0.8095835363698993  0.7718828222394898  0.4419808661636085   T   T   T
  0.8124686007201802  0.7611187451302067  0.5226389291118253   T   T   T
 
  0.00000000E+00  0.00000000E+00  0.00000000E+00
  0.00000000E+00  0.00000000E+00  0.00000000E+00
  0.00000000E+00  0.00000000E+00  0.00000000E+00
  0.00000000E+00  0.00000000E+00  0.00000000E+00
  0.00000000E+00  0.00000000E+00  0.00000000E+00
  0.00000000E+00  0.00000000E+00  0.00000000E+00
  0.00000000E+00  0.00000000E+00  0.00000000E+00
  0.00000000E+00  0.00000000E+00  0.00000000E+00
  0.00000000E+00  0.00000000E+00  0.00000000E+00
  0.00000000E+00  0.00000000E+00  0.00000000E+00
  0.00000000E+00  0.00000000E+00  0.00000000E+00
  0.00000000E+00  0.00000000E+00  0.00000000E+00
  0.00000000E+00  0.00000000E+00  0.00000000E+00
  0.00000000E+00  0.00000000E+00  0.00000000E+00
  0.00000000E+00  0.00000000E+00  0.00000000E+00
  0.00000000E+00  0.00000000E+00  0.00000000E+00
  0.00000000E+00  0.00000000E+00  0.00000000E+00
  0.00000000E+00  0.00000000E+00  0.00000000E+00
  0.00000000E+00  0.00000000E+00  0.00000000E+00
  0.00000000E+00  0.00000000E+00  0.00000000E+00
  0.00000000E+00  0.00000000E+00  0.00000000E+00
  0.00000000E+00  0.00000000E+00  0.00000000E+00
  0.00000000E+00  0.00000000E+00  0.00000000E+00
  0.00000000E+00  0.00000000E+00  0.00000000E+00
  0.00000000E+00  0.00000000E+00  0.00000000E+00
  0.00000000E+00  0.00000000E+00  0.00000000E+00
  0.00000000E+00  0.00000000E+00  0.00000000E+00
  0.00000000E+00  0.00000000E+00  0.00000000E+00
  0.00000000E+00  0.00000000E+00  0.00000000E+00
  0.00000000E+00  0.00000000E+00  0.00000000E+00
  0.00000000E+00  0.00000000E+00  0.00000000E+00
  0.00000000E+00  0.00000000E+00  0.00000000E+00
  0.00000000E+00  0.00000000E+00  0.00000000E+00
  0.00000000E+00  0.00000000E+00  0.00000000E+00
  0.00000000E+00  0.00000000E+00  0.00000000E+00
  0.00000000E+00  0.00000000E+00  0.00000000E+00
  0.00000000E+00  0.00000000E+00  0.00000000E+00
  0.00000000E+00  0.00000000E+00  0.00000000E+00
  0.00000000E+00  0.00000000E+00  0.00000000E+00
  0.00000000E+00  0.00000000E+00  0.00000000E+00
  0.00000000E+00  0.00000000E+00  0.00000000E+00
  0.00000000E+00  0.00000000E+00  0.00000000E+00
  0.00000000E+00  0.00000000E+00  0.00000000E+00
  0.00000000E+00  0.00000000E+00  0.00000000E+00
  0.00000000E+00  0.00000000E+00  0.00000000E+00
  0.00000000E+00  0.00000000E+00  0.00000000E+00
  0.00000000E+00  0.00000000E+00  0.00000000E+00
  0.00000000E+00  0.00000000E+00  0.00000000E+00
  0.00000000E+00  0.00000000E+00  0.00000000E+00
  0.00000000E+00  0.00000000E+00  0.00000000E+00
  0.00000000E+00  0.00000000E+00  0.00000000E+00
  0.00000000E+00  0.00000000E+00  0.00000000E+00
  0.00000000E+00  0.00000000E+00  0.00000000E+00
  0.00000000E+00  0.00000000E+00  0.00000000E+00
  0.00000000E+00  0.00000000E+00  0.00000000E+00
  0.00000000E+00  0.00000000E+00  0.00000000E+00
  0.00000000E+00  0.00000000E+00  0.00000000E+00
  0.00000000E+00  0.00000000E+00  0.00000000E+00
  0.00000000E+00  0.00000000E+00  0.00000000E+00
  0.00000000E+00  0.00000000E+00  0.00000000E+00
  0.00000000E+00  0.00000000E+00  0.00000000E+00
  0.00000000E+00  0.00000000E+00  0.00000000E+00
  0.00000000E+00  0.00000000E+00  0.00000000E+00
  0.00000000E+00  0.00000000E+00  0.00000000E+00
  0.00000000E+00  0.00000000E+00  0.00000000E+00
  0.00000000E+00  0.00000000E+00  0.00000000E+00
  0.00000000E+00  0.00000000E+00  0.00000000E+00
  0.00000000E+00  0.00000000E+00  0.00000000E+00
  0.00000000E+00  0.00000000E+00  0.00000000E+00
  0.00000000E+00  0.00000000E+00  0.00000000E+00
  0.00000000E+00  0.00000000E+00  0.00000000E+00
  0.00000000E+00  0.00000000E+00  0.00000000E+00
  0.00000000E+00  0.00000000E+00  0.00000000E+00
  0.00000000E+00  0.00000000E+00  0.00000000E+00
  0.00000000E+00  0.00000000E+00  0.00000000E+00
  0.00000000E+00  0.00000000E+00  0.00000000E+00
  0.00000000E+00  0.00000000E+00  0.00000000E+00
  0.00000000E+00  0.00000000E+00  0.00000000E+00
  0.00000000E+00  0.00000000E+00  0.00000000E+00
  0.00000000E+00  0.00000000E+00  0.00000000E+00
  0.00000000E+00  0.00000000E+00  0.00000000E+00
  0.00000000E+00  0.00000000E+00  0.00000000E+00
  0.00000000E+00  0.00000000E+00  0.00000000E+00
  0.00000000E+00  0.00000000E+00  0.00000000E+00
  0.00000000E+00  0.00000000E+00  0.00000000E+00
  0.00000000E+00  0.00000000E+00  0.00000000E+00
  0.00000000E+00  0.00000000E+00  0.00000000E+00
  0.00000000E+00  0.00000000E+00  0.00000000E+00
  0.00000000E+00  0.00000000E+00  0.00000000E+00
  0.00000000E+00  0.00000000E+00  0.00000000E+00
  0.00000000E+00  0.00000000E+00  0.00000000E+00
  0.00000000E+00  0.00000000E+00  0.00000000E+00
  0.00000000E+00  0.00000000E+00  0.00000000E+00
  0.00000000E+00  0.00000000E+00  0.00000000E+00
  0.00000000E+00  0.00000000E+00  0.00000000E+00
  0.00000000E+00  0.00000000E+00  0.00000000E+00
  0.00000000E+00  0.00000000E+00  0.00000000E+00
  0.00000000E+00  0.00000000E+00  0.00000000E+00
  0.00000000E+00  0.00000000E+00  0.00000000E+00
  0.00000000E+00  0.00000000E+00  0.00000000E+00
  0.00000000E+00  0.00000000E+00  0.00000000E+00
  0.00000000E+00  0.00000000E+00  0.00000000E+00
  0.00000000E+00  0.00000000E+00  0.00000000E+00
  0.00000000E+00  0.00000000E+00  0.00000000E+00
  0.00000000E+00  0.00000000E+00  0.00000000E+00
  0.00000000E+00  0.00000000E+00  0.00000000E+00
  0.00000000E+00  0.00000000E+00  0.00000000E+00
  0.00000000E+00  0.00000000E+00  0.00000000E+00
  0.00000000E+00  0.00000000E+00  0.00000000E+00
  0.00000000E+00  0.00000000E+00  0.00000000E+00
  0.00000000E+00  0.00000000E+00  0.00000000E+00
  0.00000000E+00  0.00000000E+00  0.00000000E+00
  0.00000000E+00  0.00000000E+00  0.00000000E+00
  0.00000000E+00  0.00000000E+00  0.00000000E+00
  0.00000000E+00  0.00000000E+00  0.00000000E+00
  0.00000000E+00  0.00000000E+00  0.00000000E+00
  0.00000000E+00  0.00000000E+00  0.00000000E+00
  0.00000000E+00  0.00000000E+00  0.00000000E+00
  0.00000000E+00  0.00000000E+00  0.00000000E+00
  0.00000000E+00  0.00000000E+00  0.00000000E+00
  0.00000000E+00  0.00000000E+00  0.00000000E+00
  0.00000000E+00  0.00000000E+00  0.00000000E+00
  0.00000000E+00  0.00000000E+00  0.00000000E+00
  0.00000000E+00  0.00000000E+00  0.00000000E+00
  0.00000000E+00  0.00000000E+00  0.00000000E+00
  0.00000000E+00  0.00000000E+00  0.00000000E+00
  0.00000000E+00  0.00000000E+00  0.00000000E+00
  0.00000000E+00  0.00000000E+00  0.00000000E+00
  0.00000000E+00  0.00000000E+00  0.00000000E+00
  0.00000000E+00  0.00000000E+00  0.00000000E+00
  0.00000000E+00  0.00000000E+00  0.00000000E+00
  0.00000000E+00  0.00000000E+00  0.00000000E+00
  0.00000000E+00  0.00000000E+00  0.00000000E+00
  0.00000000E+00  0.00000000E+00  0.00000000E+00
  0.00000000E+00  0.00000000E+00  0.00000000E+00
  0.00000000E+00  0.00000000E+00  0.00000000E+00
  0.00000000E+00  0.00000000E+00  0.00000000E+00
  0.00000000E+00  0.00000000E+00  0.00000000E+00
  0.00000000E+00  0.00000000E+00  0.00000000E+00
  0.00000000E+00  0.00000000E+00  0.00000000E+00
  0.00000000E+00  0.00000000E+00  0.00000000E+00
  0.00000000E+00  0.00000000E+00  0.00000000E+00
  0.00000000E+00  0.00000000E+00  0.00000000E+00
  0.00000000E+00  0.00000000E+00  0.00000000E+00
  0.00000000E+00  0.00000000E+00  0.00000000E+00
  0.00000000E+00  0.00000000E+00  0.00000000E+00
  0.00000000E+00  0.00000000E+00  0.00000000E+00
  0.00000000E+00  0.00000000E+00  0.00000000E+00
  0.00000000E+00  0.00000000E+00  0.00000000E+00
  0.00000000E+00  0.00000000E+00  0.00000000E+00
  0.00000000E+00  0.00000000E+00  0.00000000E+00
  0.00000000E+00  0.00000000E+00  0.00000000E+00
  0.00000000E+00  0.00000000E+00  0.00000000E+00
  0.00000000E+00  0.00000000E+00  0.00000000E+00
  0.00000000E+00  0.00000000E+00  0.00000000E+00
  0.00000000E+00  0.00000000E+00  0.00000000E+00
  0.00000000E+00  0.00000000E+00  0.00000000E+00
  0.00000000E+00  0.00000000E+00  0.00000000E+00
  0.00000000E+00  0.00000000E+00  0.00000000E+00
  0.00000000E+00  0.00000000E+00  0.00000000E+00
  0.00000000E+00  0.00000000E+00  0.00000000E+00
  0.00000000E+00  0.00000000E+00  0.00000000E+00
  0.00000000E+00  0.00000000E+00  0.00000000E+00
  0.00000000E+00  0.00000000E+00  0.00000000E+00
  0.00000000E+00  0.00000000E+00  0.00000000E+00
  0.00000000E+00  0.00000000E+00  0.00000000E+00
  0.00000000E+00  0.00000000E+00  0.00000000E+00
  0.00000000E+00  0.00000000E+00  0.00000000E+00
  0.00000000E+00  0.00000000E+00  0.00000000E+00
