H  C                                    
   1.00000000000000     
    25.0000000000000000    0.0000000000000000    0.0000000000000000
     0.0000000000000000   25.0000000000000000    0.0000000000000000
     0.0000000000000000    0.0000000000000000   25.0000000000000000
   H    C 
    32    15
Selective dynamics
Direct
  0.3488968511965872  0.7919694121210386  0.6243069031966553   T   T   T
  0.3091108111842245  0.8334043531031904  0.6654775368304792   T   T   T
  0.3884815748551206  0.8548638932112553  0.7220359286164736   T   T   T
  0.3977818216902931  0.8723116667158504  0.6542739867038927   T   T   T
  0.4378386296838254  0.7682455564417298  0.6562997378120220   T   T   T
  0.4985768222966375  0.8729430977265703  0.6735495117629203   T   T   T
  0.4739844221769082  0.8479598744869099  0.6122216573290493   T   T   T
  0.5628317565158325  0.8281702114313647  0.6064888584637281   T   T   T
  0.5691948715186183  0.7929633698436954  0.7231953435432916   T   T   T
  0.5874200235309065  0.8554858199414526  0.6962919525158221   T   T   T
  0.6449578064238419  0.7888287726665720  0.6298710381483962   T   T   T
  0.6816620641165727  0.8322992802697179  0.7380353132795634   T   T   T
  0.6757363400753615  0.8688154764823103  0.6778694619150095   T   T   T
  0.7397946772022423  0.7863701384940236  0.6431153162942718   T   T   T
  0.7564664852113605  0.8836690699290357  0.6289511956910456   T   T   T
  0.8161220594927852  0.8507794371687508  0.6504354014898212   T   T   T
  0.7785182228775402  0.8901036768075750  0.6963739459296014   T   T   T
  0.3651834356878063  0.7294731453279190  0.7016234310844011   T   T   T
  0.2956099906595389  0.7373019829048065  0.6892140870020894   T   T   T
  0.3261509337216421  0.7713485249996352  0.7438331360452251   T   T   T
  0.4766247052718708  0.8206458323595180  0.7602081009040127   T   T   T
  0.4942937828240971  0.7562169194245534  0.7356383244440761   T   T   T
  0.4278651640468019  0.7688153944720714  0.7577458485874284   T   T   T
  0.5212090872377436  0.7237550783496515  0.6555509261898455   T   T   T
  0.5736354919253633  0.7312377774914784  0.6080389347272055   T   T   T
  0.5066183964458654  0.7466485525973514  0.5897594284305796   T   T   T
  0.6482397813189296  0.7342162906377619  0.7398018676621375   T   T   T
  0.6866397473328586  0.7161841691780481  0.6825201159408438   T   T   T
  0.6160130878468204  0.7070745865602226  0.6824543019054798   T   T   T
  0.7765117285286103  0.8087475503803284  0.7581692754832399   T   T   T
  0.8112018834278191  0.7693022069345729  0.7100833727344964   T   T   T
  0.7486642685337159  0.7470818203534932  0.7362648257100578   T   T   T
  0.3438523246839810  0.8062399206360762  0.6658005028660090   T   T   T
  0.3939872481416020  0.8378962171282167  0.6816172334134907   T   T   T
  0.3320092981107476  0.7584228039080048  0.7021044159069493   T   T   T
  0.4461644230296882  0.8044546178510572  0.6802453225256475   T   T   T
  0.4906245694967162  0.8356151700098995  0.6512205903861049   T   T   T
  0.4622456650118927  0.7862951501845733  0.7365893861381327   T   T   T
  0.5442813330672720  0.8068292476849679  0.6405078318968180   T   T   T
  0.5845400484581722  0.8124648927281698  0.6867883687760417   T   T   T
  0.5360135693466455  0.7488205264433969  0.6224932529969657   T   T   T
  0.6408897412478908  0.7905030175590774  0.6739567096231993   T   T   T
  0.6847229953937830  0.8287353589341496  0.6940458093748736   T   T   T
  0.6484510964499660  0.7336421174669496  0.6956918559722746   T   T   T
  0.7424087805043788  0.8129106032752600  0.6784177221670435   T   T   T
  0.7752863871916305  0.8621236002195406  0.6624282231589057   T   T   T
  0.7712464257715002  0.7824440744781842  0.7231676153483897   T   T   T
 
  0.00000000E+00  0.00000000E+00  0.00000000E+00
  0.00000000E+00  0.00000000E+00  0.00000000E+00
  0.00000000E+00  0.00000000E+00  0.00000000E+00
  0.00000000E+00  0.00000000E+00  0.00000000E+00
  0.00000000E+00  0.00000000E+00  0.00000000E+00
  0.00000000E+00  0.00000000E+00  0.00000000E+00
  0.00000000E+00  0.00000000E+00  0.00000000E+00
  0.00000000E+00  0.00000000E+00  0.00000000E+00
  0.00000000E+00  0.00000000E+00  0.00000000E+00
  0.00000000E+00  0.00000000E+00  0.00000000E+00
  0.00000000E+00  0.00000000E+00  0.00000000E+00
  0.00000000E+00  0.00000000E+00  0.00000000E+00
  0.00000000E+00  0.00000000E+00  0.00000000E+00
  0.00000000E+00  0.00000000E+00  0.00000000E+00
  0.00000000E+00  0.00000000E+00  0.00000000E+00
  0.00000000E+00  0.00000000E+00  0.00000000E+00
  0.00000000E+00  0.00000000E+00  0.00000000E+00
  0.00000000E+00  0.00000000E+00  0.00000000E+00
  0.00000000E+00  0.00000000E+00  0.00000000E+00
  0.00000000E+00  0.00000000E+00  0.00000000E+00
  0.00000000E+00  0.00000000E+00  0.00000000E+00
  0.00000000E+00  0.00000000E+00  0.00000000E+00
  0.00000000E+00  0.00000000E+00  0.00000000E+00
  0.00000000E+00  0.00000000E+00  0.00000000E+00
  0.00000000E+00  0.00000000E+00  0.00000000E+00
  0.00000000E+00  0.00000000E+00  0.00000000E+00
  0.00000000E+00  0.00000000E+00  0.00000000E+00
  0.00000000E+00  0.00000000E+00  0.00000000E+00
  0.00000000E+00  0.00000000E+00  0.00000000E+00
  0.00000000E+00  0.00000000E+00  0.00000000E+00
  0.00000000E+00  0.00000000E+00  0.00000000E+00
  0.00000000E+00  0.00000000E+00  0.00000000E+00
  0.00000000E+00  0.00000000E+00  0.00000000E+00
  0.00000000E+00  0.00000000E+00  0.00000000E+00
  0.00000000E+00  0.00000000E+00  0.00000000E+00
  0.00000000E+00  0.00000000E+00  0.00000000E+00
  0.00000000E+00  0.00000000E+00  0.00000000E+00
  0.00000000E+00  0.00000000E+00  0.00000000E+00
  0.00000000E+00  0.00000000E+00  0.00000000E+00
  0.00000000E+00  0.00000000E+00  0.00000000E+00
  0.00000000E+00  0.00000000E+00  0.00000000E+00
  0.00000000E+00  0.00000000E+00  0.00000000E+00
  0.00000000E+00  0.00000000E+00  0.00000000E+00
  0.00000000E+00  0.00000000E+00  0.00000000E+00
  0.00000000E+00  0.00000000E+00  0.00000000E+00
  0.00000000E+00  0.00000000E+00  0.00000000E+00
  0.00000000E+00  0.00000000E+00  0.00000000E+00
