ALGO = Fast
AMIN = 0.01
AMIX = 0.1
BMIX = 3.0
EDIFF = 1e-06
EDIFFG = -0.03
ENCUT = 450
GGA = Pe
IBRION = 2
ICHARG = 2
IDIPOL = 3
ISMEAR = 0
ISPIN = 1
ISTART = 0
KPAR = 1
LCHARG = False
LDIPOL = T
LREAL = Auto
LVDW = T
LWAVE = False
NELM = 80
NELMDL = -7
NELMIN = 5
NFREE = 2
NPAR = 4
NSIM = 10
NSW = 400
NWRITE = 0
SIGMA = 0.03
SYSTEM = Ethanol_screening
VDW_RADIUS = 40
VDW_SCALING = 0.75
VDW_VERSION = 2
