 C  H 
 1.0000000000000000
    12.4401522270000005    0.0000000000000000    0.0000000000000000
     0.0000000000000000   11.7286879982999999    0.0000000000000000
     0.0000000000000000    0.0000000000000000   20.0000000000000000
 C   H  
   2   4
Cartesian
 -0.6672000000000000  0.0000000000000000  0.0000000000000000
  0.6672000000000000  0.0000000000000000  0.0000000000000000
 -1.2213000000000001 -0.9290000000000000  0.0708000000000000
 -1.2212000000000001  0.9290000000000000 -0.0708000000000000
  1.2213000000000001  0.9290000000000000 -0.0708000000000000
  1.2213000000000001 -0.9290000000000000  0.0708000000000000
