Ru-2r3×2r3                             
   1.00000000000000     
     9.3949750305705493    0.0000000000000000    0.0000000000000000
     4.6974875152852800    8.1362870443945798    0.0000000000000000
     0.0000000000000000    0.0000000000000000   20.0000000000000000
   Ru
    48
Selective dynamics
Direct
  0.0000000000000000  0.1666666666666643  0.0000000000000000   F   F   F
  0.3333333333333357  0.0000000000000000  0.0000000000000000   F   F   F
  0.1666666666666643  0.3333333333333357  0.0000000000000000   F   F   F
  0.5000000000000000  0.1666666666666643  0.0000000000000000   F   F   F
  0.8333333333333357  0.0000000000000000  0.0000000000000000   F   F   F
  0.6666666666666643  0.3333333333333357  0.0000000000000000   F   F   F
  0.0000000000000000  0.6666666666666643  0.0000000000000000   F   F   F
  0.3333333333333357  0.5000000000000000  0.0000000000000000   F   F   F
  0.1666666666666643  0.8333333333333357  0.0000000000000000   F   F   F
  0.5000000000000000  0.6666666666666643  0.0000000000000000   F   F   F
  0.8333333333333357  0.5000000000000000  0.0000000000000000   F   F   F
  0.6666666666666643  0.8333333333333357  0.0000000000000000   F   F   F
  0.0000000000000000  0.0000000000000000  0.1071978058539926   F   F   F
  0.1666666666666643  0.1666666666666643  0.1071978058539926   F   F   F
  0.3333333333333357  0.3333333333333357  0.1071978058539926   F   F   F
  0.5000000000000000  0.0000000000000000  0.1071978058539926   F   F   F
  0.6666666666666643  0.1666666666666643  0.1071978058539926   F   F   F
  0.8333333333333357  0.3333333333333357  0.1071978058539926   F   F   F
  0.0000000000000000  0.5000000000000000  0.1071978058539926   F   F   F
  0.1666666666666643  0.6666666666666643  0.1071978058539926   F   F   F
  0.3333333333333357  0.8333333333333357  0.1071978058539926   F   F   F
  0.5000000000000000  0.5000000000000000  0.1071978058539926   F   F   F
  0.6666666666666643  0.6666666666666643  0.1071978058539926   F   F   F
  0.8333333333333357  0.8333333333333357  0.1071978058539926   F   F   F
  0.0000000000000000  0.1666666666666643  0.2136025818357233   T   T   T
  0.3333333333333357  0.0000000000000000  0.2136025818357233   T   T   T
  0.1666666666666643  0.3333333333333357  0.2136025818357233   T   T   T
  0.5000000000000000  0.1666666666666643  0.2136025818357233   T   T   T
  0.8333333333333357  0.0000000000000000  0.2136025818357233   T   T   T
  0.6666666666666643  0.3333333333333357  0.2136025818357233   T   T   T
  0.0000000000000000  0.6666666666666643  0.2136025818357233   T   T   T
  0.3333333333333357  0.5000000000000000  0.2136025818357233   T   T   T
  0.1666666666666643  0.8333333333333357  0.2136025818357233   T   T   T
  0.5000000000000000  0.6666666666666643  0.2136025818357233   T   T   T
  0.8333333333333357  0.5000000000000000  0.2136025818357233   T   T   T
  0.6666666666666643  0.8333333333333357  0.2136025818357233   T   T   T
  0.0000000000000000  0.0000000000000000  0.3170709109914709   T   T   T
  0.1666666666666643  0.1666666666666643  0.3170709109914709   T   T   T
  0.3333333333333357  0.3333333333333357  0.3170709109914709   T   T   T
  0.5000000000000000  0.0000000000000000  0.3170709109914709   T   T   T
  0.6666666666666643  0.1666666666666643  0.3170709109914709   T   T   T
  0.8333333333333357  0.3333333333333357  0.3170709109914709   T   T   T
  0.0000000000000000  0.5000000000000000  0.3170709109914709   T   T   T
  0.1666666666666643  0.6666666666666643  0.3170709109914709   T   T   T
  0.3333333333333357  0.8333333333333357  0.3170709109914709   T   T   T
  0.5000000000000000  0.5000000000000000  0.3170709109914709   T   T   T
  0.6666666666666643  0.6666666666666643  0.3170709109914709   T   T   T
  0.8333333333333357  0.8333333333333357  0.3170709109914709   T   T   T
 
  0.00000000E+00  0.00000000E+00  0.00000000E+00
  0.00000000E+00  0.00000000E+00  0.00000000E+00
  0.00000000E+00  0.00000000E+00  0.00000000E+00
  0.00000000E+00  0.00000000E+00  0.00000000E+00
  0.00000000E+00  0.00000000E+00  0.00000000E+00
  0.00000000E+00  0.00000000E+00  0.00000000E+00
  0.00000000E+00  0.00000000E+00  0.00000000E+00
  0.00000000E+00  0.00000000E+00  0.00000000E+00
  0.00000000E+00  0.00000000E+00  0.00000000E+00
  0.00000000E+00  0.00000000E+00  0.00000000E+00
  0.00000000E+00  0.00000000E+00  0.00000000E+00
  0.00000000E+00  0.00000000E+00  0.00000000E+00
  0.00000000E+00  0.00000000E+00  0.00000000E+00
  0.00000000E+00  0.00000000E+00  0.00000000E+00
  0.00000000E+00  0.00000000E+00  0.00000000E+00
  0.00000000E+00  0.00000000E+00  0.00000000E+00
  0.00000000E+00  0.00000000E+00  0.00000000E+00
  0.00000000E+00  0.00000000E+00  0.00000000E+00
  0.00000000E+00  0.00000000E+00  0.00000000E+00
  0.00000000E+00  0.00000000E+00  0.00000000E+00
  0.00000000E+00  0.00000000E+00  0.00000000E+00
  0.00000000E+00  0.00000000E+00  0.00000000E+00
  0.00000000E+00  0.00000000E+00  0.00000000E+00
  0.00000000E+00  0.00000000E+00  0.00000000E+00
  0.00000000E+00  0.00000000E+00  0.00000000E+00
  0.00000000E+00  0.00000000E+00  0.00000000E+00
  0.00000000E+00  0.00000000E+00  0.00000000E+00
  0.00000000E+00  0.00000000E+00  0.00000000E+00
  0.00000000E+00  0.00000000E+00  0.00000000E+00
  0.00000000E+00  0.00000000E+00  0.00000000E+00
  0.00000000E+00  0.00000000E+00  0.00000000E+00
  0.00000000E+00  0.00000000E+00  0.00000000E+00
  0.00000000E+00  0.00000000E+00  0.00000000E+00
  0.00000000E+00  0.00000000E+00  0.00000000E+00
  0.00000000E+00  0.00000000E+00  0.00000000E+00
  0.00000000E+00  0.00000000E+00  0.00000000E+00
  0.00000000E+00  0.00000000E+00  0.00000000E+00
  0.00000000E+00  0.00000000E+00  0.00000000E+00
  0.00000000E+00  0.00000000E+00  0.00000000E+00
  0.00000000E+00  0.00000000E+00  0.00000000E+00
  0.00000000E+00  0.00000000E+00  0.00000000E+00
  0.00000000E+00  0.00000000E+00  0.00000000E+00
  0.00000000E+00  0.00000000E+00  0.00000000E+00
  0.00000000E+00  0.00000000E+00  0.00000000E+00
  0.00000000E+00  0.00000000E+00  0.00000000E+00
  0.00000000E+00  0.00000000E+00  0.00000000E+00
  0.00000000E+00  0.00000000E+00  0.00000000E+00
  0.00000000E+00  0.00000000E+00  0.00000000E+00
