C  N  H                                 
   1.00000000000000     
    20.0000000000000000    0.0000000000000000    0.0000000000000000
     0.0000000000000000   21.0000000000000000    0.0000000000000000
     0.0000000000000000    0.0000000000000000   22.0000000000000000
   C    N    H 
     7     2    10
Selective dynamics
Direct
  0.5767840465000020  0.4764850026666636  0.4771242482727303   F   F   F
  0.5046237532920251  0.4774870081731912  0.4963782618958675   T   T   T
  0.4860841456703114  0.4814533802758607  0.5575303991365009   T   T   T
  0.4194734199468894  0.4816493971880029  0.5763242785095940   T   T   T
  0.3683398335996921  0.4778561055266686  0.5326210034685674   T   T   T
  0.3857912030082660  0.4742767316425879  0.4709920587353950   T   T   T
  0.4529553958903825  0.4740215740231449  0.4525682769687523   T   T   T
  0.4689269226996188  0.4673737576253113  0.3910785120051390   T   T   T
  0.3010875118455754  0.4807238005056014  0.5499693698017567   T   T   T
  0.5255952514769593  0.4842135637547896  0.5917676376847716   T   T   T
  0.4068567591284136  0.4848000618966276  0.6245091393856206   T   T   T
  0.3464024907376458  0.4717570187571615  0.4365628626771754   T   T   T
  0.5142831754901905  0.4846170650413820  0.3784585319292470   T   T   T
  0.4320052884163250  0.4792984051084251  0.3615332723700697   T   T   T
  0.2920405081040073  0.4681157315068035  0.5937697925607619   T   T   T
  0.2684565089449668  0.4599834948312019  0.5206580386253887   T   T   T
  0.5884750012819796  0.4338225285768771  0.4498185657387464   T   T   T
  0.6098281502527229  0.4766213919827855  0.5169983548402532   T   T   T
  0.5901150152983178  0.5183107128356844  0.4490737823138884   T   T   T
 
  0.00000000E+00  0.00000000E+00  0.00000000E+00
  0.00000000E+00  0.00000000E+00  0.00000000E+00
  0.00000000E+00  0.00000000E+00  0.00000000E+00
  0.00000000E+00  0.00000000E+00  0.00000000E+00
  0.00000000E+00  0.00000000E+00  0.00000000E+00
  0.00000000E+00  0.00000000E+00  0.00000000E+00
  0.00000000E+00  0.00000000E+00  0.00000000E+00
  0.00000000E+00  0.00000000E+00  0.00000000E+00
  0.00000000E+00  0.00000000E+00  0.00000000E+00
  0.00000000E+00  0.00000000E+00  0.00000000E+00
  0.00000000E+00  0.00000000E+00  0.00000000E+00
  0.00000000E+00  0.00000000E+00  0.00000000E+00
  0.00000000E+00  0.00000000E+00  0.00000000E+00
  0.00000000E+00  0.00000000E+00  0.00000000E+00
  0.00000000E+00  0.00000000E+00  0.00000000E+00
  0.00000000E+00  0.00000000E+00  0.00000000E+00
  0.00000000E+00  0.00000000E+00  0.00000000E+00
  0.00000000E+00  0.00000000E+00  0.00000000E+00
  0.00000000E+00  0.00000000E+00  0.00000000E+00
