Pt  H  C  O                             
   1.00000000000000     
    19.4393438986000007    0.0000000000000000    0.0000000000000000
     9.7196719493000003   16.8349656490999990    0.0000000000000000
     0.0000000000000000    0.0000000000000000   20.0000000000000000
   Pt   H    C    O 
   192    22    22     8
Selective dynamics
Direct
  0.0000000000000000  0.0000000000000000  0.0000000000000000   F   F   F
  0.0833333333318009  0.0833333333338260  0.0000000000000000   F   F   F
  0.1666666666687462  0.1666666666676591  0.0000000000000000   F   F   F
  0.2500000000025722  0.0000000000000000  0.0000000000000000   F   F   F
  0.3333333333343731  0.0833333333338260  0.0000000000000000   F   F   F
  0.4166666666661740  0.1666666666676591  0.0000000000000000   F   F   F
  0.9999999999979750  0.2500000000014850  0.0000000000000000   F   F   F
  0.0833333333349131  0.3333333333353110  0.0000000000000000   F   F   F
  0.1666666666667140  0.4166666666691441  0.0000000000000000   F   F   F
  0.2500000000005400  0.2500000000014850  0.0000000000000000   F   F   F
  0.3333333333323409  0.3333333333353110  0.0000000000000000   F   F   F
  0.4166666666641419  0.4166666666691441  0.0000000000000000   F   F   F
  0.0833333333341884  0.0000000000000000  0.1145474324399984   F   F   F
  0.0000000000003624  0.1666666666676591  0.1145474324399984   F   F   F
  0.1666666666659893  0.0833333333338260  0.1145474324399984   F   F   F
  0.3333333333316162  0.0000000000000000  0.1145474324399984   F   F   F
  0.2499999999977902  0.1666666666676591  0.1145474324399984   F   F   F
  0.4166666666685614  0.0833333333338260  0.1145474324399984   F   F   F
  0.0833333333321633  0.2500000000014850  0.1145474324399984   F   F   F
  0.9999999999983373  0.4166666666691441  0.1145474324399984   F   F   F
  0.1666666666639642  0.3333333333353110  0.1145474324399984   F   F   F
  0.3333333333347355  0.2500000000014850  0.1145474324399984   F   F   F
  0.2500000000009024  0.4166666666691441  0.1145474324399984   F   F   F
  0.4166666666665364  0.3333333333353110  0.1145474324399984   F   F   F
  0.9997806035276420  0.0838137380160244  0.2271934684904633   T   T   T
  0.1665134517459264  0.0008505953500282  0.2271687100690586   T   T   T
  0.0825096328002693  0.1672945351928814  0.2270014730577699   T   T   T
  0.2499238686602114  0.0832464108851318  0.2269243361197747   T   T   T
  0.4175654738373007  0.9992646865852377  0.2269050393593953   T   T   T
  0.3340150507198874  0.1655144893210615  0.2263769001423652   T   T   T
  0.0002110568712892  0.3336560299547981  0.2265458010743331   T   T   T
  0.1665358436784473  0.2500524071298028  0.2260899473835997   T   T   T
  0.0870430930255684  0.4166015394077818  0.2294641792240054   T   T   T
  0.2516956788524670  0.3330498425995067  0.2295542382814567   T   T   T
  0.4157593834862270  0.2505314582787473  0.2281427798880483   T   T   T
  0.3323407830873364  0.4166578234880589  0.2303766096608268   T   T   T
  0.0000398589334748  0.0006104407733355  0.3419332459461384   T   T   T
  0.0829304353620798  0.0837935402053982  0.3419545610357832   T   T   T
  0.1661718950434047  0.1656554789016575  0.3411518614000384   T   T   T
  0.2500744809511904  0.9998196361024543  0.3421335912491624   T   T   T
  0.3344208814352006  0.0805691310356904  0.3414169332953206   T   T   T
  0.4212675000264473  0.1589164477495609  0.3402816881034976   T   T   T
  0.9995542363530170  0.2502025600035525  0.3420003153716237   T   T   T
  0.0828951972884583  0.3328635172952228  0.3404432046207873   T   T   T
  0.1692290643997896  0.4148102202016010  0.3483969456574428   T   T   T
  0.2501725891779311  0.2449384154573382  0.3393218482025118   T   T   T
  0.3406649846232576  0.3219487598857795  0.3466104062316991   T   T   T
  0.4142469553304647  0.4183349865312516  0.3466174472038506   T   T   T
  0.0000000000040572  0.4999999999970299  0.0000000000000000   F   F   F
  0.0833333333358581  0.5833333333308559  0.0000000000000000   F   F   F
  0.1666666666676591  0.6666666666646890  0.0000000000000000   F   F   F
  0.2500000000014850  0.4999999999970299  0.0000000000000000   F   F   F
  0.3333333333332860  0.5833333333308559  0.0000000000000000   F   F   F
  0.4166666666702312  0.6666666666646890  0.0000000000000000   F   F   F
  0.0000000000020250  0.7499999999985150  0.0000000000000000   F   F   F
  0.0833333333338260  0.8333333333323409  0.0000000000000000   F   F   F
  0.1666666666656269  0.9166666666661740  0.0000000000000000   F   F   F
  0.2499999999994529  0.7499999999985150  0.0000000000000000   F   F   F
  0.3333333333363981  0.8333333333323409  0.0000000000000000   F   F   F
  0.4166666666681991  0.9166666666661740  0.0000000000000000   F   F   F
  0.0833333333331012  0.4999999999970299  0.1145474324399984   F   F   F
  0.9999999999992752  0.6666666666646890  0.1145474324399984   F   F   F
  0.1666666666700465  0.5833333333308559  0.1145474324399984   F   F   F
  0.3333333333356734  0.4999999999970299  0.1145474324399984   F   F   F
  0.2500000000018474  0.6666666666646890  0.1145474324399984   F   F   F
  0.4166666666674743  0.5833333333308559  0.1145474324399984   F   F   F
  0.0833333333362205  0.7499999999985150  0.1145474324399984   F   F   F
  0.0000000000023874  0.9166666666661740  0.1145474324399984   F   F   F
  0.1666666666680214  0.8333333333323409  0.1145474324399984   F   F   F
  0.3333333333336483  0.7499999999985150  0.1145474324399984   F   F   F
  0.2499999999998153  0.9166666666661740  0.1145474324399984   F   F   F
  0.4166666666654493  0.8333333333323409  0.1145474324399984   F   F   F
  0.9999179538415001  0.5829741393725528  0.2262120403789199   T   T   T
  0.1680074621428228  0.4997177707084814  0.2298905930513899   T   T   T
  0.0828310313796765  0.6675980639896065  0.2264003228220450   T   T   T
  0.2493040785019859  0.5823359308255478  0.2286358388815433   T   T   T
  0.4160631348219915  0.4989177682711949  0.2281971836564080   T   T   T
  0.3328265704412722  0.6673680485932647  0.2257159886390792   T   T   T
  0.0002386348269210  0.8339835160662270  0.2269015615368487   T   T   T
  0.1668052683834280  0.7510824686882528  0.2260813029038594   T   T   T
  0.0836601647312320  0.9175806474582022  0.2268913311783230   T   T   T
  0.2502402656372094  0.8344415690674450  0.2269494017726136   T   T   T
  0.4164720890934316  0.7510362604058034  0.2266645950008199   T   T   T
  0.3335617971646875  0.9171699193547250  0.2272752997666850   T   T   T
  0.0000029504026667  0.4997556581374703  0.3412643135475660   T   T   T
  0.0780363374048909  0.5880008689094859  0.3393430482054574   T   T   T
  0.1633933517755350  0.6741639181248043  0.3404488853448374   T   T   T
  0.2432880423842617  0.5111845096738317  0.3475920255706612   T   T   T
  0.3338561057051487  0.5885123200898273  0.3391946241537637   T   T   T
  0.4173524116795906  0.6680656648348914  0.3407120620537560   T   T   T
  0.9983778358828015  0.7525334610483363  0.3414132407247577   T   T   T
  0.0824599428494963  0.8361422366932325  0.3414708166234186   T   T   T
  0.1666181177067848  0.9179377963166108  0.3419025664413464   T   T   T
  0.2496801346035442  0.7528482070508153  0.3413029550371314   T   T   T
  0.3336437202960238  0.8340182660555402  0.3420632949479293   T   T   T
  0.4173309125267979  0.9156342197823595  0.3421946178840382   T   T   T
  0.5000000000000000  0.0000000000000000  0.0000000000000000   F   F   F
  0.5833333333318009  0.0833333333338260  0.0000000000000000   F   F   F
  0.6666666666687462  0.1666666666676591  0.0000000000000000   F   F   F
  0.7500000000025722  0.0000000000000000  0.0000000000000000   F   F   F
  0.8333333333343731  0.0833333333338260  0.0000000000000000   F   F   F
  0.9166666666661740  0.1666666666676591  0.0000000000000000   F   F   F
  0.4999999999979678  0.2500000000014850  0.0000000000000000   F   F   F
  0.5833333333349131  0.3333333333353110  0.0000000000000000   F   F   F
  0.6666666666667140  0.4166666666691441  0.0000000000000000   F   F   F
  0.7500000000005400  0.2500000000014850  0.0000000000000000   F   F   F
  0.8333333333323409  0.3333333333353110  0.0000000000000000   F   F   F
  0.9166666666641419  0.4166666666691441  0.0000000000000000   F   F   F
  0.5833333333341884  0.0000000000000000  0.1145474324399984   F   F   F
  0.5000000000003624  0.1666666666676591  0.1145474324399984   F   F   F
  0.6666666666659893  0.0833333333338260  0.1145474324399984   F   F   F
  0.8333333333316162  0.0000000000000000  0.1145474324399984   F   F   F
  0.7499999999977902  0.1666666666676591  0.1145474324399984   F   F   F
  0.9166666666685614  0.0833333333338260  0.1145474324399984   F   F   F
  0.5833333333321633  0.2500000000014850  0.1145474324399984   F   F   F
  0.4999999999983302  0.4166666666691441  0.1145474324399984   F   F   F
  0.6666666666639642  0.3333333333353110  0.1145474324399984   F   F   F
  0.8333333333347355  0.2500000000014850  0.1145474324399984   F   F   F
  0.7500000000009024  0.4166666666691441  0.1145474324399984   F   F   F
  0.9166666666665364  0.3333333333353110  0.1145474324399984   F   F   F
  0.5015084445436797  0.0819456153962233  0.2260409333928055   T   T   T
  0.6681477925266336  0.9988563242920626  0.2269413934199548   T   T   T
  0.5838949826288291  0.1658416964271255  0.2257023672205619   T   T   T
  0.7509838165324862  0.0824440908048697  0.2267916630749666   T   T   T
  0.9173156358072627  0.9999009947621308  0.2271701990177588   T   T   T
  0.8335246023209198  0.1662674443602625  0.2270623672597153   T   T   T
  0.4982893171544865  0.3346911323314456  0.2286965646113374   T   T   T
  0.6666427819681694  0.2496259056351652  0.2265266044410548   T   T   T
  0.5836777613002333  0.4163750625100350  0.2265219767523019   T   T   T
  0.7502139496636736  0.3330927449608985  0.2271117054294221   T   T   T
  0.9162495431820995  0.2502045602306998  0.2271526958543683   T   T   T
  0.8336111658115140  0.4163667582098318  0.2271772699840807   T   T   T
  0.5019802308002138  0.9968823803563509  0.3415335561613034   T   T   T
  0.5861984876550850  0.0799527625019693  0.3413187916647368   T   T   T
  0.6688742579127905  0.1652169721740186  0.3409055610615060   T   T   T
  0.7511052469126571  0.9991798386237752  0.3420878093907058   T   T   T
  0.8338778360734406  0.0832217181392274  0.3417837441720449   T   T   T
  0.9165867246377435  0.1670710781655293  0.3419900715957364   T   T   T
  0.5065855301036797  0.2443086373432928  0.3391325093207457   T   T   T
  0.5846307810872701  0.3327081032081808  0.3407374859767158   T   T   T
  0.6669392159529628  0.4164953412787793  0.3415711771578649   T   T   T
  0.7507446270464920  0.2497278566108417  0.3414951914068223   T   T   T
  0.8333383061295627  0.3333530129126093  0.3421161960889716   T   T   T
  0.9168157091314181  0.4163467353751459  0.3418761491502343   T   T   T
  0.5000000000040572  0.4999999999970299  0.0000000000000000   F   F   F
  0.5833333333358581  0.5833333333308559  0.0000000000000000   F   F   F
  0.6666666666676591  0.6666666666646890  0.0000000000000000   F   F   F
  0.7500000000014850  0.4999999999970299  0.0000000000000000   F   F   F
  0.8333333333332860  0.5833333333308559  0.0000000000000000   F   F   F
  0.9166666666702312  0.6666666666646890  0.0000000000000000   F   F   F
  0.5000000000020250  0.7499999999985150  0.0000000000000000   F   F   F
  0.5833333333338260  0.8333333333323409  0.0000000000000000   F   F   F
  0.6666666666656269  0.9166666666661740  0.0000000000000000   F   F   F
  0.7499999999994529  0.7499999999985150  0.0000000000000000   F   F   F
  0.8333333333363981  0.8333333333323409  0.0000000000000000   F   F   F
  0.9166666666681991  0.9166666666661740  0.0000000000000000   F   F   F
  0.5833333333331012  0.4999999999970299  0.1145474324399984   F   F   F
  0.4999999999992752  0.6666666666646890  0.1145474324399984   F   F   F
  0.6666666666700465  0.5833333333308559  0.1145474324399984   F   F   F
  0.8333333333356734  0.4999999999970299  0.1145474324399984   F   F   F
  0.7500000000018474  0.6666666666646890  0.1145474324399984   F   F   F
  0.9166666666674743  0.5833333333308559  0.1145474324399984   F   F   F
  0.5833333333362205  0.7499999999985150  0.1145474324399984   F   F   F
  0.5000000000023874  0.9166666666661740  0.1145474324399984   F   F   F
  0.6666666666680214  0.8333333333323409  0.1145474324399984   F   F   F
  0.8333333333336483  0.7499999999985150  0.1145474324399984   F   F   F
  0.7499999999998153  0.9166666666661740  0.1145474324399984   F   F   F
  0.9166666666654493  0.8333333333323409  0.1145474324399984   F   F   F
  0.4994949234596673  0.5837639801919725  0.2261842095378119   T   T   T
  0.6667143152796770  0.4999310955270891  0.2268701679483824   T   T   T
  0.5828788807485715  0.6669568036396025  0.2267302361888359   T   T   T
  0.7500711345726475  0.5826664903217341  0.2265192077535193   T   T   T
  0.9177450385238193  0.4990108423436195  0.2266812719829367   T   T   T
  0.8332465928380420  0.6658947279332441  0.2266172682894068   T   T   T
  0.5004427692061874  0.8334521317950926  0.2271801571301580   T   T   T
  0.6666420896343769  0.7495768467438853  0.2267267231571923   T   T   T
  0.5845619362113887  0.9156502175841010  0.2270145208725308   T   T   T
  0.7506751064209362  0.8327236257669565  0.2268423434835508   T   T   T
  0.9165660652099440  0.7498879721266752  0.2269053434075781   T   T   T
  0.8341620632501276  0.9162961107044594  0.2271529098314365   T   T   T
  0.5009826292784937  0.5003860176200915  0.3394960454826179   T   T   T
  0.5839841456847117  0.5831037743007266  0.3411300869707006   T   T   T
  0.6673095027035079  0.6653857462585314  0.3408094541597462   T   T   T
  0.7503694535285416  0.4992839742923805  0.3417478347367067   T   T   T
  0.8335038294743320  0.5824539778805213  0.3410917644898560   T   T   T
  0.9151705794776868  0.6671657806177308  0.3411703408279364   T   T   T
  0.5004870677033785  0.7498990947899142  0.3416538781651947   T   T   T
  0.5840253793596287  0.8322973106863386  0.3423049281794951   T   T   T
  0.6679449451650353  0.9151337128268798  0.3419416982593048   T   T   T
  0.7497471860676663  0.7494398231988300  0.3406934765244553   T   T   T
  0.8332589388058123  0.8334891642189437  0.3416524045931942   T   T   T
  0.9164671505135658  0.9174665333094831  0.3421515619348443   T   T   T
  0.9024513905454284  0.7415870739838089  0.5526135298521696   T   T   T
  0.8352467950300547  0.8459538732222415  0.5350182290502651   T   T   T
  0.8802062615630540  0.7750701891461329  0.4677335266217768   T   T   T
  0.4309151444370988  0.6157007384360632  0.4675259410294703   T   T   T
  0.4242921401487432  0.6211221474970089  0.5567189314953236   T   T   T
  0.5136442709146128  0.4731552954695233  0.5646934665920307   T   T   T
  0.5390742837549566  0.4688811470398370  0.4780441232919130   T   T   T
  0.6441297698099400  0.8224873375869196  0.5153950516644097   T   T   T
  0.5243000221304892  0.8058128298364611  0.5177416922802480   T   T   T
  0.7944271044172295  0.5693930807796876  0.4948499413110424   T   T   T
  0.6748579397064725  0.5525456777839554  0.4988809557746369   T   T   T
  0.2869937107538451  0.5460747929437513  0.4669805378697455   T   T   T
  0.4243741993193619  0.2926167886679640  0.4658083531005623   T   T   T
  0.3011514353281171  0.2853593993016266  0.4663598613550559   T   T   T
  0.1635855239244389  0.5385003208729754  0.4678835230392527   T   T   T
  0.0569713977345992  0.3511116921686125  0.4804726318291365   T   T   T
  0.0820890562281763  0.3503717019763247  0.5665968591915462   T   T   T
  0.1822421081965138  0.2052364595418930  0.5587141695635534   T   T   T
  0.1665419402690300  0.2075989009378999  0.4711266988059307   T   T   T
  0.0377382255527731  0.2392471946424563  0.5768453986377868   T   T   T
  0.0937960619300013  0.1493847130805856  0.5310053645410397   T   T   T
  0.0268923740231629  0.2381678768073991  0.4882880178064301   T   T   T
  0.8561855848719816  0.7847460108429651  0.5190842976894632   T   T   T
  0.8005876195362092  0.7019533495454902  0.5043558860619197   T   T   T
  0.7267554575975407  0.6964520426188997  0.5062419752464936   T   T   T
  0.6505999454478169  0.7635952393020138  0.5122821591217921   T   T   T
  0.7349711919951381  0.6206391057186406  0.5006335454189575   T   T   T
  0.6682758745437678  0.6114394238569933  0.5029618229367550   T   T   T
  0.5922680252016458  0.6784808279831950  0.5101458581710635   T   T   T
  0.5839159278078565  0.7544985335224089  0.5137630227058743   T   T   T
  0.5184524636245011  0.6731572683299685  0.5125495420452052   T   T   T
  0.4634986778859247  0.5889747240772689  0.5144566627871954   T   T   T
  0.4917583703727100  0.5006892440132168  0.5154818588013809   T   T   T
  0.4370833750066033  0.4194874307143024  0.4854775032896105   T   T   T
  0.3698236225774456  0.4197658929203841  0.4472785064223669   T   T   T
  0.2899690665117446  0.4917351000863072  0.4488371130033243   T   T   T
  0.3695260221856421  0.3439500528228475  0.4481481396261955   T   T   T
  0.2978006719661606  0.3399266209084540  0.4484686939145027   T   T   T
  0.2180508566246283  0.4117214549642733  0.4479655450497995   T   T   T
  0.2181704789593490  0.4875716577080312  0.4493309812926776   T   T   T
  0.1526770174466406  0.4095290418426186  0.4875349668689270   T   T   T
  0.1049758817791770  0.3215740604918859  0.5178786475572242   T   T   T
  0.1366898325749468  0.2327623109566943  0.5194338929498455   T   T   T
  0.0699968608471570  0.2139084362727199  0.5297932020326234   T   T   T
  0.7870095743397295  0.7753414391386915  0.5208017442359631   T   T   T
  0.5336537734515875  0.5966494346600080  0.5166471395072068   T   T   T
  0.4230234539786405  0.4945390147406896  0.4963794594498692   T   T   T
  0.8665396650304411  0.6463101787754014  0.4900998529123040   T   T   T
  0.4511168772269046  0.7304475554193137  0.5111062992625008   T   T   T
  0.4970780488715585  0.3594288153321234  0.5036645812472711   T   T   T
  0.0926377211634714  0.4684513592689148  0.5073192430383598   T   T   T
  0.1700594476953302  0.3335715556844707  0.4973510943359159   T   T   T
 
  0.00000000E+00  0.00000000E+00  0.00000000E+00
  0.00000000E+00  0.00000000E+00  0.00000000E+00
  0.00000000E+00  0.00000000E+00  0.00000000E+00
  0.00000000E+00  0.00000000E+00  0.00000000E+00
  0.00000000E+00  0.00000000E+00  0.00000000E+00
  0.00000000E+00  0.00000000E+00  0.00000000E+00
  0.00000000E+00  0.00000000E+00  0.00000000E+00
  0.00000000E+00  0.00000000E+00  0.00000000E+00
  0.00000000E+00  0.00000000E+00  0.00000000E+00
  0.00000000E+00  0.00000000E+00  0.00000000E+00
  0.00000000E+00  0.00000000E+00  0.00000000E+00
  0.00000000E+00  0.00000000E+00  0.00000000E+00
  0.00000000E+00  0.00000000E+00  0.00000000E+00
  0.00000000E+00  0.00000000E+00  0.00000000E+00
  0.00000000E+00  0.00000000E+00  0.00000000E+00
  0.00000000E+00  0.00000000E+00  0.00000000E+00
  0.00000000E+00  0.00000000E+00  0.00000000E+00
  0.00000000E+00  0.00000000E+00  0.00000000E+00
  0.00000000E+00  0.00000000E+00  0.00000000E+00
  0.00000000E+00  0.00000000E+00  0.00000000E+00
  0.00000000E+00  0.00000000E+00  0.00000000E+00
  0.00000000E+00  0.00000000E+00  0.00000000E+00
  0.00000000E+00  0.00000000E+00  0.00000000E+00
  0.00000000E+00  0.00000000E+00  0.00000000E+00
  0.00000000E+00  0.00000000E+00  0.00000000E+00
  0.00000000E+00  0.00000000E+00  0.00000000E+00
  0.00000000E+00  0.00000000E+00  0.00000000E+00
  0.00000000E+00  0.00000000E+00  0.00000000E+00
  0.00000000E+00  0.00000000E+00  0.00000000E+00
  0.00000000E+00  0.00000000E+00  0.00000000E+00
  0.00000000E+00  0.00000000E+00  0.00000000E+00
  0.00000000E+00  0.00000000E+00  0.00000000E+00
  0.00000000E+00  0.00000000E+00  0.00000000E+00
  0.00000000E+00  0.00000000E+00  0.00000000E+00
  0.00000000E+00  0.00000000E+00  0.00000000E+00
  0.00000000E+00  0.00000000E+00  0.00000000E+00
  0.00000000E+00  0.00000000E+00  0.00000000E+00
  0.00000000E+00  0.00000000E+00  0.00000000E+00
  0.00000000E+00  0.00000000E+00  0.00000000E+00
  0.00000000E+00  0.00000000E+00  0.00000000E+00
  0.00000000E+00  0.00000000E+00  0.00000000E+00
  0.00000000E+00  0.00000000E+00  0.00000000E+00
  0.00000000E+00  0.00000000E+00  0.00000000E+00
  0.00000000E+00  0.00000000E+00  0.00000000E+00
  0.00000000E+00  0.00000000E+00  0.00000000E+00
  0.00000000E+00  0.00000000E+00  0.00000000E+00
  0.00000000E+00  0.00000000E+00  0.00000000E+00
  0.00000000E+00  0.00000000E+00  0.00000000E+00
  0.00000000E+00  0.00000000E+00  0.00000000E+00
  0.00000000E+00  0.00000000E+00  0.00000000E+00
  0.00000000E+00  0.00000000E+00  0.00000000E+00
  0.00000000E+00  0.00000000E+00  0.00000000E+00
  0.00000000E+00  0.00000000E+00  0.00000000E+00
  0.00000000E+00  0.00000000E+00  0.00000000E+00
  0.00000000E+00  0.00000000E+00  0.00000000E+00
  0.00000000E+00  0.00000000E+00  0.00000000E+00
  0.00000000E+00  0.00000000E+00  0.00000000E+00
  0.00000000E+00  0.00000000E+00  0.00000000E+00
  0.00000000E+00  0.00000000E+00  0.00000000E+00
  0.00000000E+00  0.00000000E+00  0.00000000E+00
  0.00000000E+00  0.00000000E+00  0.00000000E+00
  0.00000000E+00  0.00000000E+00  0.00000000E+00
  0.00000000E+00  0.00000000E+00  0.00000000E+00
  0.00000000E+00  0.00000000E+00  0.00000000E+00
  0.00000000E+00  0.00000000E+00  0.00000000E+00
  0.00000000E+00  0.00000000E+00  0.00000000E+00
  0.00000000E+00  0.00000000E+00  0.00000000E+00
  0.00000000E+00  0.00000000E+00  0.00000000E+00
  0.00000000E+00  0.00000000E+00  0.00000000E+00
  0.00000000E+00  0.00000000E+00  0.00000000E+00
  0.00000000E+00  0.00000000E+00  0.00000000E+00
  0.00000000E+00  0.00000000E+00  0.00000000E+00
  0.00000000E+00  0.00000000E+00  0.00000000E+00
  0.00000000E+00  0.00000000E+00  0.00000000E+00
  0.00000000E+00  0.00000000E+00  0.00000000E+00
  0.00000000E+00  0.00000000E+00  0.00000000E+00
  0.00000000E+00  0.00000000E+00  0.00000000E+00
  0.00000000E+00  0.00000000E+00  0.00000000E+00
  0.00000000E+00  0.00000000E+00  0.00000000E+00
  0.00000000E+00  0.00000000E+00  0.00000000E+00
  0.00000000E+00  0.00000000E+00  0.00000000E+00
  0.00000000E+00  0.00000000E+00  0.00000000E+00
  0.00000000E+00  0.00000000E+00  0.00000000E+00
  0.00000000E+00  0.00000000E+00  0.00000000E+00
  0.00000000E+00  0.00000000E+00  0.00000000E+00
  0.00000000E+00  0.00000000E+00  0.00000000E+00
  0.00000000E+00  0.00000000E+00  0.00000000E+00
  0.00000000E+00  0.00000000E+00  0.00000000E+00
  0.00000000E+00  0.00000000E+00  0.00000000E+00
  0.00000000E+00  0.00000000E+00  0.00000000E+00
  0.00000000E+00  0.00000000E+00  0.00000000E+00
  0.00000000E+00  0.00000000E+00  0.00000000E+00
  0.00000000E+00  0.00000000E+00  0.00000000E+00
  0.00000000E+00  0.00000000E+00  0.00000000E+00
  0.00000000E+00  0.00000000E+00  0.00000000E+00
  0.00000000E+00  0.00000000E+00  0.00000000E+00
  0.00000000E+00  0.00000000E+00  0.00000000E+00
  0.00000000E+00  0.00000000E+00  0.00000000E+00
  0.00000000E+00  0.00000000E+00  0.00000000E+00
  0.00000000E+00  0.00000000E+00  0.00000000E+00
  0.00000000E+00  0.00000000E+00  0.00000000E+00
  0.00000000E+00  0.00000000E+00  0.00000000E+00
  0.00000000E+00  0.00000000E+00  0.00000000E+00
  0.00000000E+00  0.00000000E+00  0.00000000E+00
  0.00000000E+00  0.00000000E+00  0.00000000E+00
  0.00000000E+00  0.00000000E+00  0.00000000E+00
  0.00000000E+00  0.00000000E+00  0.00000000E+00
  0.00000000E+00  0.00000000E+00  0.00000000E+00
  0.00000000E+00  0.00000000E+00  0.00000000E+00
  0.00000000E+00  0.00000000E+00  0.00000000E+00
  0.00000000E+00  0.00000000E+00  0.00000000E+00
  0.00000000E+00  0.00000000E+00  0.00000000E+00
  0.00000000E+00  0.00000000E+00  0.00000000E+00
  0.00000000E+00  0.00000000E+00  0.00000000E+00
  0.00000000E+00  0.00000000E+00  0.00000000E+00
  0.00000000E+00  0.00000000E+00  0.00000000E+00
  0.00000000E+00  0.00000000E+00  0.00000000E+00
  0.00000000E+00  0.00000000E+00  0.00000000E+00
  0.00000000E+00  0.00000000E+00  0.00000000E+00
  0.00000000E+00  0.00000000E+00  0.00000000E+00
  0.00000000E+00  0.00000000E+00  0.00000000E+00
  0.00000000E+00  0.00000000E+00  0.00000000E+00
  0.00000000E+00  0.00000000E+00  0.00000000E+00
  0.00000000E+00  0.00000000E+00  0.00000000E+00
  0.00000000E+00  0.00000000E+00  0.00000000E+00
  0.00000000E+00  0.00000000E+00  0.00000000E+00
  0.00000000E+00  0.00000000E+00  0.00000000E+00
  0.00000000E+00  0.00000000E+00  0.00000000E+00
  0.00000000E+00  0.00000000E+00  0.00000000E+00
  0.00000000E+00  0.00000000E+00  0.00000000E+00
  0.00000000E+00  0.00000000E+00  0.00000000E+00
  0.00000000E+00  0.00000000E+00  0.00000000E+00
  0.00000000E+00  0.00000000E+00  0.00000000E+00
  0.00000000E+00  0.00000000E+00  0.00000000E+00
  0.00000000E+00  0.00000000E+00  0.00000000E+00
  0.00000000E+00  0.00000000E+00  0.00000000E+00
  0.00000000E+00  0.00000000E+00  0.00000000E+00
  0.00000000E+00  0.00000000E+00  0.00000000E+00
  0.00000000E+00  0.00000000E+00  0.00000000E+00
  0.00000000E+00  0.00000000E+00  0.00000000E+00
  0.00000000E+00  0.00000000E+00  0.00000000E+00
  0.00000000E+00  0.00000000E+00  0.00000000E+00
  0.00000000E+00  0.00000000E+00  0.00000000E+00
  0.00000000E+00  0.00000000E+00  0.00000000E+00
  0.00000000E+00  0.00000000E+00  0.00000000E+00
  0.00000000E+00  0.00000000E+00  0.00000000E+00
  0.00000000E+00  0.00000000E+00  0.00000000E+00
  0.00000000E+00  0.00000000E+00  0.00000000E+00
  0.00000000E+00  0.00000000E+00  0.00000000E+00
  0.00000000E+00  0.00000000E+00  0.00000000E+00
  0.00000000E+00  0.00000000E+00  0.00000000E+00
  0.00000000E+00  0.00000000E+00  0.00000000E+00
  0.00000000E+00  0.00000000E+00  0.00000000E+00
  0.00000000E+00  0.00000000E+00  0.00000000E+00
  0.00000000E+00  0.00000000E+00  0.00000000E+00
  0.00000000E+00  0.00000000E+00  0.00000000E+00
  0.00000000E+00  0.00000000E+00  0.00000000E+00
  0.00000000E+00  0.00000000E+00  0.00000000E+00
  0.00000000E+00  0.00000000E+00  0.00000000E+00
  0.00000000E+00  0.00000000E+00  0.00000000E+00
  0.00000000E+00  0.00000000E+00  0.00000000E+00
  0.00000000E+00  0.00000000E+00  0.00000000E+00
  0.00000000E+00  0.00000000E+00  0.00000000E+00
  0.00000000E+00  0.00000000E+00  0.00000000E+00
  0.00000000E+00  0.00000000E+00  0.00000000E+00
  0.00000000E+00  0.00000000E+00  0.00000000E+00
  0.00000000E+00  0.00000000E+00  0.00000000E+00
  0.00000000E+00  0.00000000E+00  0.00000000E+00
  0.00000000E+00  0.00000000E+00  0.00000000E+00
  0.00000000E+00  0.00000000E+00  0.00000000E+00
  0.00000000E+00  0.00000000E+00  0.00000000E+00
  0.00000000E+00  0.00000000E+00  0.00000000E+00
  0.00000000E+00  0.00000000E+00  0.00000000E+00
  0.00000000E+00  0.00000000E+00  0.00000000E+00
  0.00000000E+00  0.00000000E+00  0.00000000E+00
  0.00000000E+00  0.00000000E+00  0.00000000E+00
  0.00000000E+00  0.00000000E+00  0.00000000E+00
  0.00000000E+00  0.00000000E+00  0.00000000E+00
  0.00000000E+00  0.00000000E+00  0.00000000E+00
  0.00000000E+00  0.00000000E+00  0.00000000E+00
  0.00000000E+00  0.00000000E+00  0.00000000E+00
  0.00000000E+00  0.00000000E+00  0.00000000E+00
  0.00000000E+00  0.00000000E+00  0.00000000E+00
  0.00000000E+00  0.00000000E+00  0.00000000E+00
  0.00000000E+00  0.00000000E+00  0.00000000E+00
  0.00000000E+00  0.00000000E+00  0.00000000E+00
  0.00000000E+00  0.00000000E+00  0.00000000E+00
  0.00000000E+00  0.00000000E+00  0.00000000E+00
  0.00000000E+00  0.00000000E+00  0.00000000E+00
  0.00000000E+00  0.00000000E+00  0.00000000E+00
  0.00000000E+00  0.00000000E+00  0.00000000E+00
  0.00000000E+00  0.00000000E+00  0.00000000E+00
  0.00000000E+00  0.00000000E+00  0.00000000E+00
  0.00000000E+00  0.00000000E+00  0.00000000E+00
  0.00000000E+00  0.00000000E+00  0.00000000E+00
  0.00000000E+00  0.00000000E+00  0.00000000E+00
  0.00000000E+00  0.00000000E+00  0.00000000E+00
  0.00000000E+00  0.00000000E+00  0.00000000E+00
  0.00000000E+00  0.00000000E+00  0.00000000E+00
  0.00000000E+00  0.00000000E+00  0.00000000E+00
  0.00000000E+00  0.00000000E+00  0.00000000E+00
  0.00000000E+00  0.00000000E+00  0.00000000E+00
  0.00000000E+00  0.00000000E+00  0.00000000E+00
  0.00000000E+00  0.00000000E+00  0.00000000E+00
  0.00000000E+00  0.00000000E+00  0.00000000E+00
  0.00000000E+00  0.00000000E+00  0.00000000E+00
  0.00000000E+00  0.00000000E+00  0.00000000E+00
  0.00000000E+00  0.00000000E+00  0.00000000E+00
  0.00000000E+00  0.00000000E+00  0.00000000E+00
  0.00000000E+00  0.00000000E+00  0.00000000E+00
  0.00000000E+00  0.00000000E+00  0.00000000E+00
  0.00000000E+00  0.00000000E+00  0.00000000E+00
  0.00000000E+00  0.00000000E+00  0.00000000E+00
  0.00000000E+00  0.00000000E+00  0.00000000E+00
  0.00000000E+00  0.00000000E+00  0.00000000E+00
  0.00000000E+00  0.00000000E+00  0.00000000E+00
  0.00000000E+00  0.00000000E+00  0.00000000E+00
  0.00000000E+00  0.00000000E+00  0.00000000E+00
  0.00000000E+00  0.00000000E+00  0.00000000E+00
  0.00000000E+00  0.00000000E+00  0.00000000E+00
  0.00000000E+00  0.00000000E+00  0.00000000E+00
  0.00000000E+00  0.00000000E+00  0.00000000E+00
  0.00000000E+00  0.00000000E+00  0.00000000E+00
  0.00000000E+00  0.00000000E+00  0.00000000E+00
  0.00000000E+00  0.00000000E+00  0.00000000E+00
  0.00000000E+00  0.00000000E+00  0.00000000E+00
  0.00000000E+00  0.00000000E+00  0.00000000E+00
  0.00000000E+00  0.00000000E+00  0.00000000E+00
  0.00000000E+00  0.00000000E+00  0.00000000E+00
  0.00000000E+00  0.00000000E+00  0.00000000E+00
  0.00000000E+00  0.00000000E+00  0.00000000E+00
  0.00000000E+00  0.00000000E+00  0.00000000E+00
  0.00000000E+00  0.00000000E+00  0.00000000E+00
  0.00000000E+00  0.00000000E+00  0.00000000E+00
  0.00000000E+00  0.00000000E+00  0.00000000E+00
  0.00000000E+00  0.00000000E+00  0.00000000E+00
  0.00000000E+00  0.00000000E+00  0.00000000E+00
  0.00000000E+00  0.00000000E+00  0.00000000E+00
  0.00000000E+00  0.00000000E+00  0.00000000E+00
  0.00000000E+00  0.00000000E+00  0.00000000E+00
  0.00000000E+00  0.00000000E+00  0.00000000E+00