Ag  O  C  N  H                          
   1.00000000000000     
    17.3505005835000006    0.0000000000000000    0.0000000000000000
    -8.6752502918999994   15.0259742738999993    0.0000000000000000
     0.0000000000000000    0.0000000000000000   22.0832996367999996
   Ag   O    C    N    H 
   144     1    15     4    18
Selective dynamics
Direct
  0.0000000000000000  0.0000000000000000  0.0000000000000000   F   F   F
  0.9999999999987850  0.1666666666699967  0.0000000000000000   F   F   F
  0.1666666666683270  0.1666666666699967  0.0000000000000000   F   F   F
  0.1666666666695491  0.0000000000000000  0.0000000000000000   F   F   F
  0.0000000000000000  0.3333333333333357  0.0000000000000000   F   F   F
  0.0000000000045475  0.5000000000033253  0.0000000000000000   F   F   F
  0.1666666666683270  0.5000000000033253  0.0000000000000000   F   F   F
  0.1666666666637866  0.3333333333333357  0.0000000000000000   F   F   F
  0.0000000000000000  0.6666666666666643  0.0000000000000000   F   F   F
  0.9999999999954525  0.8333333333300033  0.0000000000000000   F   F   F
  0.1666666666650016  0.8333333333300033  0.0000000000000000   F   F   F
  0.1666666666637866  0.6666666666666643  0.0000000000000000   F   F   F
  0.3333333333333357  0.0000000000000000  0.0000000000000000   F   F   F
  0.3333333333321136  0.1666666666699967  0.0000000000000000   F   F   F
  0.5000000000016627  0.1666666666699967  0.0000000000000000   F   F   F
  0.5000000000028848  0.0000000000000000  0.0000000000000000   F   F   F
  0.3333333333333357  0.3333333333333357  0.0000000000000000   F   F   F
  0.3333333333321136  0.5000000000033253  0.0000000000000000   F   F   F
  0.5000000000016627  0.5000000000033253  0.0000000000000000   F   F   F
  0.5000000000028848  0.3333333333333357  0.0000000000000000   F   F   F
  0.3333333333333357  0.6666666666666643  0.0000000000000000   F   F   F
  0.3333333333287882  0.8333333333300033  0.0000000000000000   F   F   F
  0.4999999999983373  0.8333333333300033  0.0000000000000000   F   F   F
  0.5000000000028848  0.6666666666666643  0.0000000000000000   F   F   F
  0.6666666666666643  0.0000000000000000  0.0000000000000000   F   F   F
  0.6666666666654493  0.1666666666699967  0.0000000000000000   F   F   F
  0.8333333333349984  0.1666666666699967  0.0000000000000000   F   F   F
  0.8333333333362134  0.0000000000000000  0.0000000000000000   F   F   F
  0.6666666666666643  0.3333333333333357  0.0000000000000000   F   F   F
  0.6666666666654493  0.5000000000033253  0.0000000000000000   F   F   F
  0.8333333333349984  0.5000000000033253  0.0000000000000000   F   F   F
  0.8333333333304509  0.3333333333333357  0.0000000000000000   F   F   F
  0.6666666666666643  0.6666666666666643  0.0000000000000000   F   F   F
  0.6666666666621239  0.8333333333300033  0.0000000000000000   F   F   F
  0.8333333333316730  0.8333333333300033  0.0000000000000000   F   F   F
  0.8333333333362134  0.6666666666666643  0.0000000000000000   F   F   F
  0.2222233413339652  0.1111100016655797  0.1069199959984815   F   F   F
  0.2222233413333825  0.2777766586656512  0.1069199959984815   F   F   F
  0.0555566649984058  0.2777766586656512  0.1069199959984815   F   F   F
  0.0555566649989956  0.1111100016655797  0.1069199959984815   F   F   F
  0.2222233413339652  0.4444433349989154  0.1069199959984815   F   F   F
  0.2222233413333825  0.6111099919989869  0.1069199959984815   F   F   F
  0.0555566649984058  0.6111099919989869  0.1069199959984815   F   F   F
  0.0555566649989956  0.4444433349989154  0.1069199959984815   F   F   F
  0.2222233413339652  0.7777766683322440  0.1069199959984815   F   F   F
  0.2222233413333825  0.9444433253323226  0.1069199959984815   F   F   F
  0.0555566649984058  0.9444433253323226  0.1069199959984815   F   F   F
  0.0555566649989956  0.7777766683322440  0.1069199959984815   F   F   F
  0.5555566746673009  0.1111100016655797  0.1069199959984815   F   F   F
  0.5555566746667182  0.2777766586656512  0.1069199959984815   F   F   F
  0.3888899983317415  0.2777766586656512  0.1069199959984815   F   F   F
  0.3888899983323242  0.1111100016655797  0.1069199959984815   F   F   F
  0.5555566746673009  0.4444433349989154  0.1069199959984815   F   F   F
  0.5555566746667182  0.6111099919989869  0.1069199959984815   F   F   F
  0.3888899983317415  0.6111099919989869  0.1069199959984815   F   F   F
  0.3888899983323242  0.4444433349989154  0.1069199959984815   F   F   F
  0.5555566746673009  0.7777766683322440  0.1069199959984815   F   F   F
  0.5555566746667182  0.9444433253323226  0.1069199959984815   F   F   F
  0.3888899983317415  0.9444433253323226  0.1069199959984815   F   F   F
  0.3888899983323242  0.7777766683322440  0.1069199959984815   F   F   F
  0.8888900080006366  0.1111100016655797  0.1069199959984815   F   F   F
  0.8888900080000539  0.2777766586656512  0.1069199959984815   F   F   F
  0.7222233316650772  0.2777766586656512  0.1069199959984815   F   F   F
  0.7222233316656599  0.1111100016655797  0.1069199959984815   F   F   F
  0.8888900080006366  0.4444433349989154  0.1069199959984815   F   F   F
  0.8888900080000539  0.6111099919989869  0.1069199959984815   F   F   F
  0.7222233316650772  0.6111099919989869  0.1069199959984815   F   F   F
  0.7222233316656599  0.4444433349989154  0.1069199959984815   F   F   F
  0.8888900080006366  0.7777766683322440  0.1069199959984815   F   F   F
  0.8888900080000539  0.9444433253323226  0.1069199959984815   F   F   F
  0.7222233316650772  0.9444433253323226  0.1069199959984815   F   F   F
  0.7222233316656599  0.7777766683322440  0.1069199959984815   F   F   F
  0.1111434830556504  0.2221307050439860  0.2153994017705816   T   T   T
  0.1112487717464610  0.0556574992996732  0.2154019343161928   T   T   T
  0.2777904345676497  0.0555803484457668  0.2151953517662620   T   T   T
  0.2776290463762112  0.2221010676059484  0.2151452729274217   T   T   T
  0.1111029361866336  0.5556401395836771  0.2144648260600762   T   T   T
  0.1109097609288747  0.3883900378960082  0.2146407927531282   T   T   T
  0.2776052239120451  0.3887458397594385  0.2152122262971070   T   T   T
  0.2778224717550977  0.5555234583818046  0.2148263041410595   T   T   T
  0.1114581911642158  0.8891386793974719  0.2153098607020058   T   T   T
  0.1112839362449326  0.7224332224913742  0.2146852659643082   T   T   T
  0.2777791050809487  0.7222720655401810  0.2147562863026649   T   T   T
  0.2777366003134147  0.8890085340268700  0.2148921227776931   T   T   T
  0.4442090591271318  0.2220506915588307  0.2145117651551032   T   T   T
  0.4442258612880750  0.0553277393875367  0.2146047646035529   T   T   T
  0.6110894351414033  0.0554836798545582  0.2147586006681547   T   T   T
  0.6109633240518538  0.2219351144239382  0.2142587349740002   T   T   T
  0.4439981743709695  0.5558761398416060  0.2140157362196800   T   T   T
  0.4438671925650466  0.3885001624982543  0.2139736258273443   T   T   T
  0.6111633885456390  0.3890702303506712  0.2145204984555126   T   T   T
  0.6115854695102482  0.5558593698763665  0.2140527187261899   T   T   T
  0.4443368217404285  0.8890876457829144  0.2145422142959376   T   T   T
  0.4443981319551851  0.7224587736268074  0.2144410171331276   T   T   T
  0.6113995087373970  0.7228199566160287  0.2141673363370186   T   T   T
  0.6114950260610540  0.8892854380383404  0.2143600855895229   T   T   T
  0.7778988378896863  0.2221598157517385  0.2147775522368393   T   T   T
  0.7778411987923237  0.0556252364417713  0.2151941005669412   T   T   T
  0.9445556212220571  0.0556920129837876  0.2151889291924677   T   T   T
  0.9444216429530460  0.2221285231286719  0.2152778404710158   T   T   T
  0.7784665551140001  0.5559130322669849  0.2146872786800556   T   T   T
  0.7781696266792079  0.3890025641959138  0.2144609713335696   T   T   T
  0.9446669319103842  0.3888496388367465  0.2147221955669224   T   T   T
  0.9447922426774407  0.5557523557144785  0.2146051884465789   T   T   T
  0.7784419479748090  0.8893543317200652  0.2148821521517723   T   T   T
  0.7786591222340812  0.7229018383362633  0.2145911158673427   T   T   T
  0.9451338185828058  0.7227286411313818  0.2148718732913822   T   T   T
  0.9449994746231487  0.8893670549671274  0.2153110515790793   T   T   T
  0.0002187638842431  0.0002950710971559  0.3246565418595591   T   T   T
  0.0000576213270413  0.1666952487387737  0.3246643125010958   T   T   T
  0.1668248585005900  0.1667719859565866  0.3246620972409783   T   T   T
  0.1668160067217572  0.0001159768279549  0.3246523743249177   T   T   T
  0.0000679608781234  0.3332748083594752  0.3245963649285755   T   T   T
  0.0002612702256233  0.5000172988740481  0.3239532647904587   T   T   T
  0.1663491489139141  0.4994044642882554  0.3222472282390484   T   T   T
  0.1666710805113235  0.3332612203745933  0.3246815954000558   T   T   T
  0.0005884720352916  0.6669226730923309  0.3240621274780615   T   T   T
  0.0004802581695927  0.8337021225936952  0.3244004500163081   T   T   T
  0.1670237408962860  0.8334876893045038  0.3244284983069567   T   T   T
  0.1667026683465714  0.6667435453316992  0.3236067286044796   T   T   T
  0.3334371313342722  0.0002178847129076  0.3245602074735581   T   T   T
  0.3335058981115644  0.1668432474867796  0.3246316643564086   T   T   T
  0.4999427228999316  0.1666141629003175  0.3229928166214137   T   T   T
  0.5000028733070908  0.0003316861208823  0.3244046866606077   T   T   T
  0.3334301984406555  0.3332844462270779  0.3245813492461861   T   T   T
  0.3333364191188045  0.4996480946126893  0.3243562660732456   T   T   T
  0.4994150222871419  0.5004788660196847  0.3204724596894630   T   T   T
  0.4999550939761944  0.3339541582480357  0.3223572545087176   T   T   T
  0.3332754372536346  0.6665613953111217  0.3230363258842599   T   T   T
  0.3334012004910781  0.8335666418962542  0.3238488665906896   T   T   T
  0.5005862279793662  0.8344873228772368  0.3221788721439099   T   T   T
  0.5005505486055233  0.6672219048792974  0.3222935642065633   T   T   T
  0.6668265943818833  0.0003360457213142  0.3244660971007069   T   T   T
  0.6665994688160225  0.1664905662272572  0.3232633341843149   T   T   T
  0.8333930356581408  0.1667306926069087  0.3246190605767090   T   T   T
  0.8335783692330634  0.0003184492118569  0.3245027199051138   T   T   T
  0.6672535919928820  0.3334030200895412  0.3216146984773085   T   T   T
  0.6679304112715704  0.5011582769119290  0.3221582005672616   T   T   T
  0.8345466688159536  0.5002711226115297  0.3233967793374115   T   T   T
  0.8339799980858680  0.3333094068588547  0.3237259121630987   T   T   T
  0.6675332997608191  0.6680201353952431  0.3215493008106857   T   T   T
  0.6671256754918706  0.8342713397095274  0.3233890409051402   T   T   T
  0.8338519216483372  0.8339540281435454  0.3243259567996916   T   T   T
  0.8345515188730332  0.6675891348605668  0.3234939932118358   T   T   T
  0.7094853174511944  0.6876258182327066  0.4711872817598919   T   T   T
  0.2014639225639961  0.5640311167778030  0.4773589411471449   T   T   T
  0.2988250184179928  0.5936948400706354  0.4766508306914313   T   T   T
  0.3634856771823925  0.6806305150428341  0.4616236301141412   T   T   T
  0.4543512174784146  0.7087269152947883  0.4607270146403261   T   T   T
  0.4834572342156047  0.6491535719655970  0.4775053867274622   T   T   T
  0.4199780929346364  0.5626567597346476  0.4953828341877398   T   T   T
  0.3283261935537871  0.5337795874223236  0.4933209756857361   T   T   T
  0.6274145213012773  0.6414093058367694  0.4699320693404492   T   T   T
  0.7049414318067997  0.5178653571974654  0.4605763013598835   T   T   T
  0.7287914434860693  0.4518132587402471  0.4645493477497846   T   T   T
  0.6669035574784103  0.3609671133522085  0.4679808755924479   T   T   T
  0.5751618347247268  0.3347332091136245  0.4656141013050185   T   T   T
  0.5500773316506625  0.4000882469192764  0.4614994016142729   T   T   T
  0.6139389598657994  0.4913153811042553  0.4608667966412144   T   T   T
  0.6952175193951253  0.2927745292604917  0.4762478080584779   T   T   T
  0.2673444586212665  0.4466901177520408  0.5071066781491030   T   T   T
  0.5756584488268620  0.6816151833961895  0.4772368096729474   T   T   T
  0.5811014779690126  0.5505916869454348  0.4607950125262441   T   T   T
  0.5105805271928107  0.2457630392269274  0.4701852769495810   T   T   T
  0.3420152630735857  0.7283168104313706  0.4502768693413227   T   T   T
  0.5029987079892673  0.7770280525659986  0.4483138542875282   T   T   T
  0.4400367050767574  0.5175952778052237  0.5148653980853584   T   T   T
  0.2035865234635259  0.4299599021531447  0.5158059249966426   T   T   T
  0.2888576244712169  0.4081732549900681  0.5268038524004812   T   T   T
  0.6144818546110495  0.7488737623236073  0.4737048761009062   T   T   T
  0.1629203102131053  0.5047471565310900  0.4484732134260467   T   T   T
  0.1895039452192201  0.6166274359916338  0.4603345493838323   T   T   T
  0.1733050240951801  0.5460543502918744  0.5235006078255818   T   T   T
  0.5148173939840001  0.5226839937576274  0.4521578505079249   T   T   T
  0.7994798924636658  0.4724038689229674  0.4656236393325203   T   T   T
  0.4793375157189152  0.3794246244636364  0.4613005625230192   T   T   T
  0.6731371799387409  0.2589829067297786  0.5204252927177403   T   T   T
  0.6669051698288814  0.2404702675481900  0.4409906208214489   T   T   T
  0.7679349856486078  0.3237869098582249  0.4733796080629366   T   T   T
  0.5296433284739865  0.2009774574209941  0.4586549101156035   T   T   T
  0.4496167676043547  0.2289144445821907  0.4531208381264130   T   T   T
  0.7547750895064181  0.5880929096554584  0.4600432670807110   T   T   T
 
  0.00000000E+00  0.00000000E+00  0.00000000E+00
  0.00000000E+00  0.00000000E+00  0.00000000E+00
  0.00000000E+00  0.00000000E+00  0.00000000E+00
  0.00000000E+00  0.00000000E+00  0.00000000E+00
  0.00000000E+00  0.00000000E+00  0.00000000E+00
  0.00000000E+00  0.00000000E+00  0.00000000E+00
  0.00000000E+00  0.00000000E+00  0.00000000E+00
  0.00000000E+00  0.00000000E+00  0.00000000E+00
  0.00000000E+00  0.00000000E+00  0.00000000E+00
  0.00000000E+00  0.00000000E+00  0.00000000E+00
  0.00000000E+00  0.00000000E+00  0.00000000E+00
  0.00000000E+00  0.00000000E+00  0.00000000E+00
  0.00000000E+00  0.00000000E+00  0.00000000E+00
  0.00000000E+00  0.00000000E+00  0.00000000E+00
  0.00000000E+00  0.00000000E+00  0.00000000E+00
  0.00000000E+00  0.00000000E+00  0.00000000E+00
  0.00000000E+00  0.00000000E+00  0.00000000E+00
  0.00000000E+00  0.00000000E+00  0.00000000E+00
  0.00000000E+00  0.00000000E+00  0.00000000E+00
  0.00000000E+00  0.00000000E+00  0.00000000E+00
  0.00000000E+00  0.00000000E+00  0.00000000E+00
  0.00000000E+00  0.00000000E+00  0.00000000E+00
  0.00000000E+00  0.00000000E+00  0.00000000E+00
  0.00000000E+00  0.00000000E+00  0.00000000E+00
  0.00000000E+00  0.00000000E+00  0.00000000E+00
  0.00000000E+00  0.00000000E+00  0.00000000E+00
  0.00000000E+00  0.00000000E+00  0.00000000E+00
  0.00000000E+00  0.00000000E+00  0.00000000E+00
  0.00000000E+00  0.00000000E+00  0.00000000E+00
  0.00000000E+00  0.00000000E+00  0.00000000E+00
  0.00000000E+00  0.00000000E+00  0.00000000E+00
  0.00000000E+00  0.00000000E+00  0.00000000E+00
  0.00000000E+00  0.00000000E+00  0.00000000E+00
  0.00000000E+00  0.00000000E+00  0.00000000E+00
  0.00000000E+00  0.00000000E+00  0.00000000E+00
  0.00000000E+00  0.00000000E+00  0.00000000E+00
  0.00000000E+00  0.00000000E+00  0.00000000E+00
  0.00000000E+00  0.00000000E+00  0.00000000E+00
  0.00000000E+00  0.00000000E+00  0.00000000E+00
  0.00000000E+00  0.00000000E+00  0.00000000E+00
  0.00000000E+00  0.00000000E+00  0.00000000E+00
  0.00000000E+00  0.00000000E+00  0.00000000E+00
  0.00000000E+00  0.00000000E+00  0.00000000E+00
  0.00000000E+00  0.00000000E+00  0.00000000E+00
  0.00000000E+00  0.00000000E+00  0.00000000E+00
  0.00000000E+00  0.00000000E+00  0.00000000E+00
  0.00000000E+00  0.00000000E+00  0.00000000E+00
  0.00000000E+00  0.00000000E+00  0.00000000E+00
  0.00000000E+00  0.00000000E+00  0.00000000E+00
  0.00000000E+00  0.00000000E+00  0.00000000E+00
  0.00000000E+00  0.00000000E+00  0.00000000E+00
  0.00000000E+00  0.00000000E+00  0.00000000E+00
  0.00000000E+00  0.00000000E+00  0.00000000E+00
  0.00000000E+00  0.00000000E+00  0.00000000E+00
  0.00000000E+00  0.00000000E+00  0.00000000E+00
  0.00000000E+00  0.00000000E+00  0.00000000E+00
  0.00000000E+00  0.00000000E+00  0.00000000E+00
  0.00000000E+00  0.00000000E+00  0.00000000E+00
  0.00000000E+00  0.00000000E+00  0.00000000E+00
  0.00000000E+00  0.00000000E+00  0.00000000E+00
  0.00000000E+00  0.00000000E+00  0.00000000E+00
  0.00000000E+00  0.00000000E+00  0.00000000E+00
  0.00000000E+00  0.00000000E+00  0.00000000E+00
  0.00000000E+00  0.00000000E+00  0.00000000E+00
  0.00000000E+00  0.00000000E+00  0.00000000E+00
  0.00000000E+00  0.00000000E+00  0.00000000E+00
  0.00000000E+00  0.00000000E+00  0.00000000E+00
  0.00000000E+00  0.00000000E+00  0.00000000E+00
  0.00000000E+00  0.00000000E+00  0.00000000E+00
  0.00000000E+00  0.00000000E+00  0.00000000E+00
  0.00000000E+00  0.00000000E+00  0.00000000E+00
  0.00000000E+00  0.00000000E+00  0.00000000E+00
  0.00000000E+00  0.00000000E+00  0.00000000E+00
  0.00000000E+00  0.00000000E+00  0.00000000E+00
  0.00000000E+00  0.00000000E+00  0.00000000E+00
  0.00000000E+00  0.00000000E+00  0.00000000E+00
  0.00000000E+00  0.00000000E+00  0.00000000E+00
  0.00000000E+00  0.00000000E+00  0.00000000E+00
  0.00000000E+00  0.00000000E+00  0.00000000E+00
  0.00000000E+00  0.00000000E+00  0.00000000E+00
  0.00000000E+00  0.00000000E+00  0.00000000E+00
  0.00000000E+00  0.00000000E+00  0.00000000E+00
  0.00000000E+00  0.00000000E+00  0.00000000E+00
  0.00000000E+00  0.00000000E+00  0.00000000E+00
  0.00000000E+00  0.00000000E+00  0.00000000E+00
  0.00000000E+00  0.00000000E+00  0.00000000E+00
  0.00000000E+00  0.00000000E+00  0.00000000E+00
  0.00000000E+00  0.00000000E+00  0.00000000E+00
  0.00000000E+00  0.00000000E+00  0.00000000E+00
  0.00000000E+00  0.00000000E+00  0.00000000E+00
  0.00000000E+00  0.00000000E+00  0.00000000E+00
  0.00000000E+00  0.00000000E+00  0.00000000E+00
  0.00000000E+00  0.00000000E+00  0.00000000E+00
  0.00000000E+00  0.00000000E+00  0.00000000E+00
  0.00000000E+00  0.00000000E+00  0.00000000E+00
  0.00000000E+00  0.00000000E+00  0.00000000E+00
  0.00000000E+00  0.00000000E+00  0.00000000E+00
  0.00000000E+00  0.00000000E+00  0.00000000E+00
  0.00000000E+00  0.00000000E+00  0.00000000E+00
  0.00000000E+00  0.00000000E+00  0.00000000E+00
  0.00000000E+00  0.00000000E+00  0.00000000E+00
  0.00000000E+00  0.00000000E+00  0.00000000E+00
  0.00000000E+00  0.00000000E+00  0.00000000E+00
  0.00000000E+00  0.00000000E+00  0.00000000E+00
  0.00000000E+00  0.00000000E+00  0.00000000E+00
  0.00000000E+00  0.00000000E+00  0.00000000E+00
  0.00000000E+00  0.00000000E+00  0.00000000E+00
  0.00000000E+00  0.00000000E+00  0.00000000E+00
  0.00000000E+00  0.00000000E+00  0.00000000E+00
  0.00000000E+00  0.00000000E+00  0.00000000E+00
  0.00000000E+00  0.00000000E+00  0.00000000E+00
  0.00000000E+00  0.00000000E+00  0.00000000E+00
  0.00000000E+00  0.00000000E+00  0.00000000E+00
  0.00000000E+00  0.00000000E+00  0.00000000E+00
  0.00000000E+00  0.00000000E+00  0.00000000E+00
  0.00000000E+00  0.00000000E+00  0.00000000E+00
  0.00000000E+00  0.00000000E+00  0.00000000E+00
  0.00000000E+00  0.00000000E+00  0.00000000E+00
  0.00000000E+00  0.00000000E+00  0.00000000E+00
  0.00000000E+00  0.00000000E+00  0.00000000E+00
  0.00000000E+00  0.00000000E+00  0.00000000E+00
  0.00000000E+00  0.00000000E+00  0.00000000E+00
  0.00000000E+00  0.00000000E+00  0.00000000E+00
  0.00000000E+00  0.00000000E+00  0.00000000E+00
  0.00000000E+00  0.00000000E+00  0.00000000E+00
  0.00000000E+00  0.00000000E+00  0.00000000E+00
  0.00000000E+00  0.00000000E+00  0.00000000E+00
  0.00000000E+00  0.00000000E+00  0.00000000E+00
  0.00000000E+00  0.00000000E+00  0.00000000E+00
  0.00000000E+00  0.00000000E+00  0.00000000E+00
  0.00000000E+00  0.00000000E+00  0.00000000E+00
  0.00000000E+00  0.00000000E+00  0.00000000E+00
  0.00000000E+00  0.00000000E+00  0.00000000E+00
  0.00000000E+00  0.00000000E+00  0.00000000E+00
  0.00000000E+00  0.00000000E+00  0.00000000E+00
  0.00000000E+00  0.00000000E+00  0.00000000E+00
  0.00000000E+00  0.00000000E+00  0.00000000E+00
  0.00000000E+00  0.00000000E+00  0.00000000E+00
  0.00000000E+00  0.00000000E+00  0.00000000E+00
  0.00000000E+00  0.00000000E+00  0.00000000E+00
  0.00000000E+00  0.00000000E+00  0.00000000E+00
  0.00000000E+00  0.00000000E+00  0.00000000E+00
  0.00000000E+00  0.00000000E+00  0.00000000E+00
  0.00000000E+00  0.00000000E+00  0.00000000E+00
  0.00000000E+00  0.00000000E+00  0.00000000E+00
  0.00000000E+00  0.00000000E+00  0.00000000E+00
  0.00000000E+00  0.00000000E+00  0.00000000E+00
  0.00000000E+00  0.00000000E+00  0.00000000E+00
  0.00000000E+00  0.00000000E+00  0.00000000E+00
  0.00000000E+00  0.00000000E+00  0.00000000E+00
  0.00000000E+00  0.00000000E+00  0.00000000E+00
  0.00000000E+00  0.00000000E+00  0.00000000E+00
  0.00000000E+00  0.00000000E+00  0.00000000E+00
  0.00000000E+00  0.00000000E+00  0.00000000E+00
  0.00000000E+00  0.00000000E+00  0.00000000E+00
  0.00000000E+00  0.00000000E+00  0.00000000E+00
  0.00000000E+00  0.00000000E+00  0.00000000E+00
  0.00000000E+00  0.00000000E+00  0.00000000E+00
  0.00000000E+00  0.00000000E+00  0.00000000E+00
  0.00000000E+00  0.00000000E+00  0.00000000E+00
  0.00000000E+00  0.00000000E+00  0.00000000E+00
  0.00000000E+00  0.00000000E+00  0.00000000E+00
  0.00000000E+00  0.00000000E+00  0.00000000E+00
  0.00000000E+00  0.00000000E+00  0.00000000E+00
  0.00000000E+00  0.00000000E+00  0.00000000E+00
  0.00000000E+00  0.00000000E+00  0.00000000E+00
  0.00000000E+00  0.00000000E+00  0.00000000E+00
  0.00000000E+00  0.00000000E+00  0.00000000E+00
  0.00000000E+00  0.00000000E+00  0.00000000E+00
  0.00000000E+00  0.00000000E+00  0.00000000E+00
  0.00000000E+00  0.00000000E+00  0.00000000E+00
  0.00000000E+00  0.00000000E+00  0.00000000E+00
  0.00000000E+00  0.00000000E+00  0.00000000E+00
  0.00000000E+00  0.00000000E+00  0.00000000E+00
  0.00000000E+00  0.00000000E+00  0.00000000E+00
  0.00000000E+00  0.00000000E+00  0.00000000E+00
  0.00000000E+00  0.00000000E+00  0.00000000E+00
  0.00000000E+00  0.00000000E+00  0.00000000E+00
  0.00000000E+00  0.00000000E+00  0.00000000E+00
  0.00000000E+00  0.00000000E+00  0.00000000E+00
  0.00000000E+00  0.00000000E+00  0.00000000E+00
  0.00000000E+00  0.00000000E+00  0.00000000E+00
