C  H  O                                 
   1.00000000000000     
    20.0000000000000000    0.0000000000000000    0.0000000000000000
     0.0000000000000000   20.0000000000000000    0.0000000000000000
     0.0000000000000000    0.0000000000000000   20.0000000000000000
   C    H    O 
    17    20     6
Selective dynamics
Direct
  0.3606820860074249  0.4033078573802597  0.4774740889720213   T   T   T
  0.4095359517602417  0.4349352968743794  0.5156179740079694   T   T   T
  0.4397487741030438  0.4939793368892483  0.4921603282206810   T   T   T
  0.4197869951892806  0.5204301110264240  0.4307109202888746   T   T   T
  0.3704836928850933  0.4889625787316622  0.3923602171243925   T   T   T
  0.3407248892500607  0.4304022211318541  0.4153395869984661   T   T   T
  0.3493835946494554  0.3127981283362287  0.5547588845786456   T   T   T
  0.4945211466914713  0.5274868831687899  0.5313323509330570   T   T   T
  0.5631903622563228  0.4920410555677443  0.5276839821823255   T   T   T
  0.6504935844949674  0.4835148422229190  0.4464962706634763   T   T   T
  0.6676331156413639  0.4261705370356646  0.4108691642011450   T   T   T
  0.7009281911533921  0.5291346533289893  0.4661133437224850   T   T   T
  0.7343183206370966  0.4127952015735171  0.3945047661898736   T   T   T
  0.7677127414289817  0.5152759341035803  0.4501602589689034   T   T   T
  0.7841191485288277  0.4572845127894913  0.4145178614913316   T   T   T
  0.5625038676421346  0.4187644086971707  0.5499525601520885   T   T   T
  0.7296487629799198  0.6334955069025364  0.5161983848229310   T   T   T
  0.4244743432982811  0.4141181643796721  0.5636864652359966   T   T   T
  0.4433440313294217  0.5660488516188417  0.4122710775434539   T   T   T
  0.3545758508425214  0.5093761758584806  0.3443649657866846   T   T   T
  0.2783371549733543  0.3595822549441271  0.4025669810359159   T   T   T
  0.3398269206148386  0.3448670900513381  0.5985837339997736   T   T   T
  0.3198850060821344  0.2667686038765488  0.5584799881299368   T   T   T
  0.4031652024758939  0.3007354000098479  0.5526617097629670   T   T   T
  0.5017738280775544  0.5783170958366264  0.5111265350763856   T   T   T
  0.5981553948683818  0.5204124976745510  0.5598009903598979   T   T   T
  0.5071563506038252  0.5586474151860651  0.6243347271627581   T   T   T
  0.6273626914052921  0.3924781497401997  0.3960901932530180   T   T   T
  0.7470394089963887  0.3677806844893476  0.3665040561217401   T   T   T
  0.8071501476477124  0.5498294491744168  0.4649135956455355   T   T   T
  0.8363733970091217  0.4474413288846114  0.4023900265828566   T   T   T
  0.5290108276150689  0.3904419881223082  0.5162487253448761   T   T   T
  0.6132785477610686  0.3981890262874642  0.5447270677942342   T   T   T
  0.5095274719355539  0.4455650773871888  0.6272631597882512   T   T   T
  0.7552410339184286  0.6517939195706536  0.4708823070330325   T   T   T
  0.7029938188018948  0.6748126106299399  0.5404259970572454   T   T   T
  0.7670486982894105  0.6124516986481972  0.5508860114383706   T   T   T
  0.2925352311148935  0.3993739242482101  0.3779342948859221   T   T   T
  0.3281803688524826  0.3449777289059285  0.4945138511216811   T   T   T
  0.5837911301236176  0.4967910437134026  0.4586911174535799   T   T   T
  0.4741375678811715  0.5312561149910667  0.6011918147256574   T   T   T
  0.5433477595861401  0.4110490432940768  0.6184668712248105   T   T   T
  0.6797980936864690  0.5851707004664124  0.4994864002167440   T   T   T
 
  0.00000000E+00  0.00000000E+00  0.00000000E+00
  0.00000000E+00  0.00000000E+00  0.00000000E+00
  0.00000000E+00  0.00000000E+00  0.00000000E+00
  0.00000000E+00  0.00000000E+00  0.00000000E+00
  0.00000000E+00  0.00000000E+00  0.00000000E+00
  0.00000000E+00  0.00000000E+00  0.00000000E+00
  0.00000000E+00  0.00000000E+00  0.00000000E+00
  0.00000000E+00  0.00000000E+00  0.00000000E+00
  0.00000000E+00  0.00000000E+00  0.00000000E+00
  0.00000000E+00  0.00000000E+00  0.00000000E+00
  0.00000000E+00  0.00000000E+00  0.00000000E+00
  0.00000000E+00  0.00000000E+00  0.00000000E+00
  0.00000000E+00  0.00000000E+00  0.00000000E+00
  0.00000000E+00  0.00000000E+00  0.00000000E+00
  0.00000000E+00  0.00000000E+00  0.00000000E+00
  0.00000000E+00  0.00000000E+00  0.00000000E+00
  0.00000000E+00  0.00000000E+00  0.00000000E+00
  0.00000000E+00  0.00000000E+00  0.00000000E+00
  0.00000000E+00  0.00000000E+00  0.00000000E+00
  0.00000000E+00  0.00000000E+00  0.00000000E+00
  0.00000000E+00  0.00000000E+00  0.00000000E+00
  0.00000000E+00  0.00000000E+00  0.00000000E+00
  0.00000000E+00  0.00000000E+00  0.00000000E+00
  0.00000000E+00  0.00000000E+00  0.00000000E+00
  0.00000000E+00  0.00000000E+00  0.00000000E+00
  0.00000000E+00  0.00000000E+00  0.00000000E+00
  0.00000000E+00  0.00000000E+00  0.00000000E+00
  0.00000000E+00  0.00000000E+00  0.00000000E+00
  0.00000000E+00  0.00000000E+00  0.00000000E+00
  0.00000000E+00  0.00000000E+00  0.00000000E+00
  0.00000000E+00  0.00000000E+00  0.00000000E+00
  0.00000000E+00  0.00000000E+00  0.00000000E+00
  0.00000000E+00  0.00000000E+00  0.00000000E+00
  0.00000000E+00  0.00000000E+00  0.00000000E+00
  0.00000000E+00  0.00000000E+00  0.00000000E+00
  0.00000000E+00  0.00000000E+00  0.00000000E+00
  0.00000000E+00  0.00000000E+00  0.00000000E+00
  0.00000000E+00  0.00000000E+00  0.00000000E+00
  0.00000000E+00  0.00000000E+00  0.00000000E+00
  0.00000000E+00  0.00000000E+00  0.00000000E+00
  0.00000000E+00  0.00000000E+00  0.00000000E+00
  0.00000000E+00  0.00000000E+00  0.00000000E+00
  0.00000000E+00  0.00000000E+00  0.00000000E+00
