 O  C 
 1.0000000000000000
    10.9005742919999999    0.0000000000000000    0.0000000000000000
     0.0000000000000000   10.2771600009000004    0.0000000000000000
     0.0000000000000000    0.0000000000000000   20.0000000000000000
 O   C  
   2   1
Cartesian
 -1.1970000000000001  0.0000000000000000  0.0000000000000000
  1.1970000000000001  0.0000000000000000  0.0000000000000000
  0.0000000000000000  0.0000000000000000  0.0000000000000000
