Au_bulk\(1\1\1)                         
   1.00000000000000     
    11.6003999711999999    0.0000000000000000    0.0000000000000000
    -5.8001999855999999   10.0462410688000006    0.0000000000000000
     0.0000000000000000    0.0000000000000000   22.1037006377999994
   Au   S    H    C    O    N 
    64     1     7     3     2     1
Selective dynamics
Direct
  0.0000000000000000  0.0000000000000000  0.0000000000000000   F   F   F
  0.1666675062424687  0.0833325016059945  0.1071299991255970   F   F   F
  0.9999999997255742  0.2500000002787104  0.0000000000000000   F   F   F
  0.1666675055737912  0.3333325008893127  0.1071299991255970   F   F   F
  0.0000000000223821  0.4999999995620286  0.0000000000000000   F   F   F
  0.1666675062648508  0.5833325011680230  0.1071299991255970   F   F   F
  0.9999999997479634  0.7499999998407390  0.0000000000000000   F   F   F
  0.1666675060938729  0.8333325014467334  0.1071299991255970   F   F   F
  0.2499999997586286  0.0000000000000000  0.0000000000000000   F   F   F
  0.4166675060010974  0.0833325016059945  0.1071299991255970   F   F   F
  0.2500000004496883  0.2500000002787104  0.0000000000000000   F   F   F
  0.4166675061944574  0.3333325008893127  0.1071299991255970   F   F   F
  0.2499999997810107  0.4999999995620286  0.0000000000000000   F   F   F
  0.4166675060234795  0.5833325011680230  0.1071299991255970   F   F   F
  0.2499999996100328  0.7499999998407390  0.0000000000000000   F   F   F
  0.4166675058525016  0.8333325014467334  0.1071299991255970   F   F   F
  0.5000000003792948  0.0000000000000000  0.0000000000000000   F   F   F
  0.6666675057597260  0.0833325016059945  0.1071299991255970   F   F   F
  0.5000000002083169  0.2500000002787104  0.0000000000000000   F   F   F
  0.6666675059530860  0.3333325008893127  0.1071299991255970   F   F   F
  0.4999999995396394  0.4999999995620286  0.0000000000000000   F   F   F
  0.6666675057821081  0.5833325011680230  0.1071299991255970   F   F   F
  0.5000000002306990  0.7499999998407390  0.0000000000000000   F   F   F
  0.6666675064731677  0.8333325014467334  0.1071299991255970   F   F   F
  0.7500000001379235  0.0000000000000000  0.0000000000000000   F   F   F
  0.9166675063803922  0.0833325016059945  0.1071299991255970   F   F   F
  0.7499999999669456  0.2500000002787104  0.0000000000000000   F   F   F
  0.9166675057117146  0.3333325008893127  0.1071299991255970   F   F   F
  0.7500000001603127  0.4999999995620286  0.0000000000000000   F   F   F
  0.9166675055407367  0.5833325011680230  0.1071299991255970   F   F   F
  0.7499999999893348  0.7499999998407390  0.0000000000000000   F   F   F
  0.9166675062318035  0.8333325014467334  0.1071299991255970   F   F   F
  0.0832503427523592  0.1673787966181494  0.2134082670810915   T   T   T
  0.0009775857996293  0.0020345913491347  0.3225598673091738   T   T   T
  0.0830982713253065  0.4179520890114481  0.2127628521884747   T   T   T
 -0.0007840818097480  0.2515143052253041  0.3236986645069684   T   T   T
  0.0825060512740497  0.6662685958691619  0.2122852189997333   T   T   T
 -0.0005857212617593  0.5012464622814922  0.3245885688630974   T   T   T
  0.0834432177713512  0.9166654842813204  0.2135191492103755   T   T   T
 -0.0002159785211498  0.7509610452203216  0.3243835086961705   T   T   T
  0.3333660779461893  0.1676118673109856  0.2133296717703503   T   T   T
  0.2496465820056442  0.0033776205501304  0.3229264166018639   T   T   T
  0.3328312053561296  0.4170663188852291  0.2128306586674701   T   T   T
  0.2495090544492461  0.2509931926042174  0.3228698399124704   T   T   T
  0.3362625387481414  0.6680918679255341  0.2149601111471183   T   T   T
  0.2445724336219445  0.4960264680724208  0.3218082598029861   T   T   T
  0.3340786436630531  0.9187850183716059  0.2119927975414662   T   T   T
  0.2468240392894166  0.7553994995481548  0.3181547422410627   T   T   T
  0.5842579668987009  0.1675160917682770  0.2129450401807158   T   T   T
  0.4999098873266307  0.0055161853208325  0.3218482430714671   T   T   T
  0.5841968588335548  0.4176552333724301  0.2129185664264832   T   T   T
  0.5006068032515957  0.2524651277173122  0.3227164670760884   T   T   T
  0.5829409785894549  0.6682817042674163  0.2144997701061331   T   T   T
  0.4990987911477686  0.4988559504326809  0.3206073872306738   T   T   T
  0.5821594572360671  0.9150294178919418  0.2149624022134425   T   T   T
  0.4931409536595320  0.7508871425011855  0.3270814415971668   T   T   T
  0.8335793458541334  0.1680831338016268  0.2127836149152093   T   T   T
  0.7534762400064258  0.0045175691180894  0.3203821366898705   T   T   T
  0.8340762965817953  0.4174764739417605  0.2136588730231196   T   T   T
  0.7504323725478420  0.2524406612059661  0.3230558595428742   T   T   T
  0.8335925453272756  0.6665973701939710  0.2128950701961707   T   T   T
  0.7506863531599625  0.5014285032892534  0.3231217510883205   T   T   T
  0.8334998261481319  0.9173266786661883  0.2127950655586092   T   T   T
  0.7541969644875772  0.7520412508584904  0.3202768894722968   T   T   T
  0.5505063436069466  0.7561747808270509  0.4334704282889588   T   T   T
  0.5370954784572934  0.8767781554344938  0.4915659142859080   T   T   T
  0.3491599707110774  0.5436187050333116  0.4498689445350351   T   T   T
  0.4462421042197781  0.6093104357878727  0.5160069041000116   T   T   T
  0.2548050356257047  0.6149990250096283  0.5393418304084595   T   T   T
  0.1495464317212027  0.7002978937122982  0.4741807766196784   T   T   T
  0.2493362159409868  0.7177088300492275  0.4151623228181457   T   T   T
  0.1469851395232420  0.5672038493405076  0.4414381433151855   T   T   T
  0.3651776593279117  0.8239041191912398  0.5266098212715942   T   T   T
  0.4057972553193026  0.6353635027936811  0.4766683840228226   T   T   T
  0.3110465014425878  0.6803726496372825  0.5012723966671935   T   T   T
  0.2841188805494557  0.8492360258741778  0.5491903197690861   T   T   T
  0.4941330314184022  0.9103560852878662  0.5226685742762368   T   T   T
  0.2073180419396887  0.6642226227328727  0.4559269559235160   T   T   T
 
  0.00000000E+00  0.00000000E+00  0.00000000E+00
  0.00000000E+00  0.00000000E+00  0.00000000E+00
  0.00000000E+00  0.00000000E+00  0.00000000E+00
  0.00000000E+00  0.00000000E+00  0.00000000E+00
  0.00000000E+00  0.00000000E+00  0.00000000E+00
  0.00000000E+00  0.00000000E+00  0.00000000E+00
  0.00000000E+00  0.00000000E+00  0.00000000E+00
  0.00000000E+00  0.00000000E+00  0.00000000E+00
  0.00000000E+00  0.00000000E+00  0.00000000E+00
  0.00000000E+00  0.00000000E+00  0.00000000E+00
  0.00000000E+00  0.00000000E+00  0.00000000E+00
  0.00000000E+00  0.00000000E+00  0.00000000E+00
  0.00000000E+00  0.00000000E+00  0.00000000E+00
  0.00000000E+00  0.00000000E+00  0.00000000E+00
  0.00000000E+00  0.00000000E+00  0.00000000E+00
  0.00000000E+00  0.00000000E+00  0.00000000E+00
  0.00000000E+00  0.00000000E+00  0.00000000E+00
  0.00000000E+00  0.00000000E+00  0.00000000E+00
  0.00000000E+00  0.00000000E+00  0.00000000E+00
  0.00000000E+00  0.00000000E+00  0.00000000E+00
  0.00000000E+00  0.00000000E+00  0.00000000E+00
  0.00000000E+00  0.00000000E+00  0.00000000E+00
  0.00000000E+00  0.00000000E+00  0.00000000E+00
  0.00000000E+00  0.00000000E+00  0.00000000E+00
  0.00000000E+00  0.00000000E+00  0.00000000E+00
  0.00000000E+00  0.00000000E+00  0.00000000E+00
  0.00000000E+00  0.00000000E+00  0.00000000E+00
  0.00000000E+00  0.00000000E+00  0.00000000E+00
  0.00000000E+00  0.00000000E+00  0.00000000E+00
  0.00000000E+00  0.00000000E+00  0.00000000E+00
  0.00000000E+00  0.00000000E+00  0.00000000E+00
  0.00000000E+00  0.00000000E+00  0.00000000E+00
  0.00000000E+00  0.00000000E+00  0.00000000E+00
  0.00000000E+00  0.00000000E+00  0.00000000E+00
  0.00000000E+00  0.00000000E+00  0.00000000E+00
  0.00000000E+00  0.00000000E+00  0.00000000E+00
  0.00000000E+00  0.00000000E+00  0.00000000E+00
  0.00000000E+00  0.00000000E+00  0.00000000E+00
  0.00000000E+00  0.00000000E+00  0.00000000E+00
  0.00000000E+00  0.00000000E+00  0.00000000E+00
  0.00000000E+00  0.00000000E+00  0.00000000E+00
  0.00000000E+00  0.00000000E+00  0.00000000E+00
  0.00000000E+00  0.00000000E+00  0.00000000E+00
  0.00000000E+00  0.00000000E+00  0.00000000E+00
  0.00000000E+00  0.00000000E+00  0.00000000E+00
  0.00000000E+00  0.00000000E+00  0.00000000E+00
  0.00000000E+00  0.00000000E+00  0.00000000E+00
  0.00000000E+00  0.00000000E+00  0.00000000E+00
  0.00000000E+00  0.00000000E+00  0.00000000E+00
  0.00000000E+00  0.00000000E+00  0.00000000E+00
  0.00000000E+00  0.00000000E+00  0.00000000E+00
  0.00000000E+00  0.00000000E+00  0.00000000E+00
  0.00000000E+00  0.00000000E+00  0.00000000E+00
  0.00000000E+00  0.00000000E+00  0.00000000E+00
  0.00000000E+00  0.00000000E+00  0.00000000E+00
  0.00000000E+00  0.00000000E+00  0.00000000E+00
  0.00000000E+00  0.00000000E+00  0.00000000E+00
  0.00000000E+00  0.00000000E+00  0.00000000E+00
  0.00000000E+00  0.00000000E+00  0.00000000E+00
  0.00000000E+00  0.00000000E+00  0.00000000E+00
  0.00000000E+00  0.00000000E+00  0.00000000E+00
  0.00000000E+00  0.00000000E+00  0.00000000E+00
  0.00000000E+00  0.00000000E+00  0.00000000E+00
  0.00000000E+00  0.00000000E+00  0.00000000E+00
  0.00000000E+00  0.00000000E+00  0.00000000E+00
  0.00000000E+00  0.00000000E+00  0.00000000E+00
  0.00000000E+00  0.00000000E+00  0.00000000E+00
  0.00000000E+00  0.00000000E+00  0.00000000E+00
  0.00000000E+00  0.00000000E+00  0.00000000E+00
  0.00000000E+00  0.00000000E+00  0.00000000E+00
  0.00000000E+00  0.00000000E+00  0.00000000E+00
  0.00000000E+00  0.00000000E+00  0.00000000E+00
  0.00000000E+00  0.00000000E+00  0.00000000E+00
  0.00000000E+00  0.00000000E+00  0.00000000E+00
  0.00000000E+00  0.00000000E+00  0.00000000E+00
  0.00000000E+00  0.00000000E+00  0.00000000E+00
  0.00000000E+00  0.00000000E+00  0.00000000E+00
  0.00000000E+00  0.00000000E+00  0.00000000E+00
