Ru  H  C                                
   1.00000000000000     
    18.7899500611000008    0.0000000000000000    0.0000000000000000
     9.3949750305999995   16.2725740887999990    0.0000000000000000
     0.0000000000000000    0.0000000000000000   20.0000000000000000
   Ru   H    C 
   192    32    15
Selective dynamics
Direct
  0.0000000000019114  0.0833333333312822  0.0000000000000000   F   F   F
  0.1666666666657761  0.0000000000000000  0.0000000000000000   F   F   F
  0.0833333333309767  0.1666666666687178  0.0000000000000000   F   F   F
  0.2500000000032401  0.0833333333312822  0.0000000000000000   F   F   F
  0.4166666666671119  0.0000000000000000  0.0000000000000000   F   F   F
  0.3333333333323125  0.1666666666687178  0.0000000000000000   F   F   F
  0.9999999999992468  0.3333333333312822  0.0000000000000000   F   F   F
  0.1666666666684407  0.2500000000000000  0.0000000000000000   F   F   F
  0.0833333333336412  0.4166666666687178  0.0000000000000000   F   F   F
  0.2500000000005826  0.3333333333312822  0.0000000000000000   F   F   F
  0.4166666666697694  0.2500000000000000  0.0000000000000000   F   F   F
  0.3333333333349700  0.4166666666687178  0.0000000000000000   F   F   F
  0.0000000000000000  0.0000000000000000  0.1071978058550016   F   F   F
  0.0833333333321420  0.0833333333312822  0.1071978058550016   F   F   F
  0.1666666666665293  0.1666666666687178  0.1071978058550016   F   F   F
  0.2500000000013287  0.0000000000000000  0.1071978058550016   F   F   F
  0.3333333333334707  0.0833333333312822  0.1071978058550016   F   F   F
  0.4166666666678580  0.1666666666687178  0.1071978058550016   F   F   F
  0.9999999999973355  0.2500000000000000  0.1071978058550016   F   F   F
  0.0833333333347994  0.3333333333312822  0.1071978058550016   F   F   F
  0.1666666666638719  0.4166666666687178  0.1071978058550016   F   F   F
  0.2499999999986713  0.2500000000000000  0.1071978058550016   F   F   F
  0.3333333333361281  0.3333333333312822  0.1071978058550016   F   F   F
  0.4166666666652006  0.4166666666687178  0.1071978058550016   F   F   F
  0.0000708096489482  0.0834015027928287  0.2134561139440243   T   T   T
  0.1666886743584541  0.0000380704348740  0.2134227447495524   T   T   T
  0.0833363601345286  0.1666932749908015  0.2135590328315496   T   T   T
  0.2500804292314734  0.0832664389168652  0.2135892896647859   T   T   T
  0.4166496632559321  0.0000900166216677  0.2135054874549111   T   T   T
  0.3334231945979402  0.1665520472581535  0.2135139766453921   T   T   T
  0.9998772292926267  0.3333603155175380  0.2134679446121401   T   T   T
  0.1667243287379869  0.2498954483648738  0.2135499634027614   T   T   T
  0.0835338269829941  0.4164512546921487  0.2135388897367664   T   T   T
  0.2499906340175255  0.3332580125606073  0.2132058435213021   T   T   T
  0.4165815544844046  0.2499544322123261  0.2136132643750370   T   T   T
  0.3334245807050794  0.4165916798718290  0.2137008781316526   T   T   T
 -0.0001125553326669  0.0003788828986181  0.3163651639293981   T   T   T
  0.0834048174030062  0.0833982463992451  0.3165135097531746   T   T   T
  0.1667229023375791  0.1665871864484474  0.3165668060675176   T   T   T
  0.2497563241974110  0.0003184337249165  0.3166860336855300   T   T   T
  0.3332829561522315  0.0834317432685457  0.3165202647645465   T   T   T
  0.4167675758563215  0.1665016246890719  0.3164713080858850   T   T   T
 -0.0000453962765335  0.2497935738904985  0.3165473560339543   T   T   T
  0.0833693365824882  0.3331903247868763  0.3164172663402765   T   T   T
  0.1661219765868831  0.4157342609836364  0.3162524631835689   T   T   T
  0.2500002859690373  0.2500350339337572  0.3166507034546048   T   T   T
  0.3339812840022617  0.3321309620770547  0.3161594005186342   T   T   T
  0.4187058853426812  0.4148295621282286  0.3161298578401653   T   T   T
  0.0000000000019114  0.5833333333312822  0.0000000000000000   F   F   F
  0.1666666666657761  0.5000000000000000  0.0000000000000000   F   F   F
  0.0833333333309767  0.6666666666687178  0.0000000000000000   F   F   F
  0.2500000000032401  0.5833333333312822  0.0000000000000000   F   F   F
  0.4166666666671119  0.5000000000000000  0.0000000000000000   F   F   F
  0.3333333333323054  0.6666666666687178  0.0000000000000000   F   F   F
  0.9999999999992468  0.8333333333312822  0.0000000000000000   F   F   F
  0.1666666666684407  0.7500000000000000  0.0000000000000000   F   F   F
  0.0833333333336412  0.9166666666687178  0.0000000000000000   F   F   F
  0.2500000000005826  0.8333333333312822  0.0000000000000000   F   F   F
  0.4166666666644474  0.7500000000000000  0.0000000000000000   F   F   F
  0.3333333333296480  0.9166666666687178  0.0000000000000000   F   F   F
  0.0000000000000000  0.5000000000000000  0.1071978058550016   F   F   F
  0.0833333333321420  0.5833333333312822  0.1071978058550016   F   F   F
  0.1666666666665293  0.6666666666687178  0.1071978058550016   F   F   F
  0.2500000000013287  0.5000000000000000  0.1071978058550016   F   F   F
  0.3333333333334707  0.5833333333312822  0.1071978058550016   F   F   F
  0.4166666666678580  0.6666666666687178  0.1071978058550016   F   F   F
  0.9999999999973355  0.7500000000000000  0.1071978058550016   F   F   F
  0.0833333333347994  0.8333333333312822  0.1071978058550016   F   F   F
  0.1666666666638719  0.9166666666687178  0.1071978058550016   F   F   F
  0.2499999999986713  0.7500000000000000  0.1071978058550016   F   F   F
  0.3333333333361281  0.8333333333312822  0.1071978058550016   F   F   F
  0.4166666666652006  0.9166666666687178  0.1071978058550016   F   F   F
  0.0000536780864848  0.5835472345717204  0.2137694484420822   T   T   T
  0.1663983315684239  0.4998965446671062  0.2136648110411209   T   T   T
  0.0834577609865018  0.6666479183863142  0.2135041434377411   T   T   T
  0.2499689739172810  0.5835127809241951  0.2140183080580556   T   T   T
  0.4166067267101713  0.5001351454461544  0.2135176295869590   T   T   T
  0.3334485893037035  0.6667275698474847  0.2140183873354637   T   T   T
  0.9996845415845423  0.8335916233226343  0.2133400282563030   T   T   T
  0.1666344921326154  0.7499450468958208  0.2135873426972726   T   T   T
  0.0832624720245801  0.9167833558484463  0.2134212520542794   T   T   T
  0.2498044385441464  0.8333681675454294  0.2135396829004358   T   T   T
  0.4168489155725889  0.7498657898281006  0.2137764549270023   T   T   T
  0.3331998089208624  0.9168602995562488  0.2135138377594099   T   T   T
 -0.0000014716830172  0.4997455620016301  0.3163170763490053   T   T   T
  0.0812836750203638  0.5840717689653775  0.3163178174913312   T   T   T
  0.1649189747710262  0.6690931188275990  0.3164233933598348   T   T   T
  0.2497383147999341  0.4992999974376086  0.3177590808570982   T   T   T
  0.3334408338695397  0.5841636643109738  0.3173635758267542   T   T   T
  0.4163154230472967  0.6681372850089073  0.3166756018542091   T   T   T
 -0.0002533837506964  0.7501184448566875  0.3164323980977881   T   T   T
  0.0830362423942447  0.8335618106577829  0.3162997690416650   T   T   T
  0.1663113716939735  0.9169659540525297  0.3164153585458712   T   T   T
  0.2493544793517958  0.7515326158756415  0.3162871035824535   T   T   T
  0.3333735749265073  0.8335419839095534  0.3164749792838952   T   T   T
  0.4166566464657170  0.9167183796886016  0.3164873750641315   T   T   T
  0.5000000000045688  0.0833333333312822  0.0000000000000000   F   F   F
  0.6666666666684407  0.0000000000000000  0.0000000000000000   F   F   F
  0.5833333333336412  0.1666666666687178  0.0000000000000000   F   F   F
  0.7500000000005826  0.0833333333312822  0.0000000000000000   F   F   F
  0.9166666666697694  0.0000000000000000  0.0000000000000000   F   F   F
  0.8333333333349700  0.1666666666687178  0.0000000000000000   F   F   F
  0.5000000000019114  0.3333333333312822  0.0000000000000000   F   F   F
  0.6666666666657761  0.2500000000000000  0.0000000000000000   F   F   F
  0.5833333333309767  0.4166666666687178  0.0000000000000000   F   F   F
  0.7500000000032401  0.3333333333312822  0.0000000000000000   F   F   F
  0.9166666666671119  0.2500000000000000  0.0000000000000000   F   F   F
  0.8333333333323054  0.4166666666687178  0.0000000000000000   F   F   F
  0.5000000000026574  0.0000000000000000  0.1071978058550016   F   F   F
  0.5833333333347994  0.0833333333312822  0.1071978058550016   F   F   F
  0.6666666666691938  0.1666666666687178  0.1071978058550016   F   F   F
  0.7500000000039933  0.0000000000000000  0.1071978058550016   F   F   F
  0.8333333333361281  0.0833333333312822  0.1071978058550016   F   F   F
  0.9166666666652006  0.1666666666687178  0.1071978058550016   F   F   F
  0.5000000000000000  0.2500000000000000  0.1071978058550016   F   F   F
  0.5833333333374640  0.3333333333312822  0.1071978058550016   F   F   F
  0.6666666666665293  0.4166666666687178  0.1071978058550016   F   F   F
  0.7500000000013287  0.2500000000000000  0.1071978058550016   F   F   F
  0.8333333333334707  0.3333333333312822  0.1071978058550016   F   F   F
  0.9166666666678580  0.4166666666687178  0.1071978058550016   F   F   F
  0.5001539317495253  0.0833672413829229  0.2134654010440739   T   T   T
  0.6666951845523809 -0.0000135341059369  0.2134868423426703   T   T   T
  0.5834535217217018  0.1665811527956478  0.2134975038154955   T   T   T
  0.7499837332056354  0.0833409520073153  0.2136103860175675   T   T   T
  0.9166080165446510  0.0000114119459139  0.2134823361264390   T   T   T
  0.8334376300682973  0.1666080101164358  0.2134821237861949   T   T   T
  0.4998120916337693  0.3335328478418760  0.2137041766843667   T   T   T
  0.6668457938997423  0.2497839584584648  0.2134857473632280   T   T   T
  0.5833744077629750  0.4168254473703906  0.2135714659789281   T   T   T
  0.7498470562086955  0.3333684340060073  0.2135720594886902   T   T   T
  0.9167528113625507  0.2499065811528222  0.2134902006159125   T   T   T
  0.8332558485133090  0.4167620531947974  0.2137452124422932   T   T   T
  0.5000035898205294  0.0001476617143505  0.3164051697626900   T   T   T
  0.5834416886951946  0.0832936644595666  0.3165388205128988   T   T   T
  0.6668744384057859  0.1664427699948932  0.3166020080552808   T   T   T
  0.7500105324467922  0.0000642784634443  0.3167037189482081   T   T   T
  0.8333582886866487  0.0832477226628490  0.3165710826493147   T   T   T
  0.9167414694159105  0.1665145017580660  0.3164534967652103   T   T   T
  0.4999596710605044  0.2499341781814539  0.3165837568222185   T   T   T
  0.5834098746852341  0.3333660124916268  0.3164462522380911   T   T   T
  0.6670645031421881  0.4160691357311403  0.3163208164982932   T   T   T
  0.7503491275857692  0.2497426344889574  0.3166061846027751   T   T   T
  0.8334133927343713  0.3332074171086755  0.3164776472871262   T   T   T
  0.9168615127879554  0.4165625362139149  0.3164300667320333   T   T   T
  0.4999999999992468  0.5833333333312822  0.0000000000000000   F   F   F
  0.6666666666684407  0.5000000000000000  0.0000000000000000   F   F   F
  0.5833333333336412  0.6666666666687178  0.0000000000000000   F   F   F
  0.7500000000005826  0.5833333333312822  0.0000000000000000   F   F   F
  0.9166666666697694  0.5000000000000000  0.0000000000000000   F   F   F
  0.8333333333349700  0.6666666666687178  0.0000000000000000   F   F   F
  0.5000000000019114  0.8333333333312822  0.0000000000000000   F   F   F
  0.6666666666657761  0.7500000000000000  0.0000000000000000   F   F   F
  0.5833333333309767  0.9166666666687178  0.0000000000000000   F   F   F
  0.7500000000032401  0.8333333333312822  0.0000000000000000   F   F   F
  0.9166666666671119  0.7500000000000000  0.0000000000000000   F   F   F
  0.8333333333323054  0.9166666666687178  0.0000000000000000   F   F   F
  0.5000000000026574  0.5000000000000000  0.1071978058550016   F   F   F
  0.5833333333347994  0.5833333333312822  0.1071978058550016   F   F   F
  0.6666666666638719  0.6666666666687178  0.1071978058550016   F   F   F
  0.7499999999986713  0.5000000000000000  0.1071978058550016   F   F   F
  0.8333333333361281  0.5833333333312822  0.1071978058550016   F   F   F
  0.9166666666652006  0.6666666666687178  0.1071978058550016   F   F   F
  0.5000000000000000  0.7500000000000000  0.1071978058550016   F   F   F
  0.5833333333321420  0.8333333333312822  0.1071978058550016   F   F   F
  0.6666666666665293  0.9166666666687178  0.1071978058550016   F   F   F
  0.7500000000013287  0.7500000000000000  0.1071978058550016   F   F   F
  0.8333333333334707  0.8333333333312822  0.1071978058550016   F   F   F
  0.9166666666678580  0.9166666666687178  0.1071978058550016   F   F   F
  0.5001900897024921  0.5833475065781393  0.2136779213153739   T   T   T
  0.6667499891486004  0.5000371485934684  0.2136322958893810   T   T   T
  0.5832887250319742  0.6667644090403394  0.2137957804306021   T   T   T
  0.7500821395138678  0.5832918369866154  0.2136177646127611   T   T   T
  0.9165731696351754  0.5000350197864303  0.2134311479880325   T   T   T
  0.8333260100528017  0.6666116543036137  0.2133395996614960   T   T   T
  0.4998857421417432  0.8334139224715790  0.2134450540023019   T   T   T
  0.6666685951944583  0.7500445015662027  0.2137342410647451   T   T   T
  0.5833521530469896  0.9166717166114711  0.2134533647278071   T   T   T
  0.7499769261458290  0.8332843803168251  0.2136075538551395   T   T   T
  0.9165072716447344  0.7501378998340995  0.2134378171775083   T   T   T
  0.8332700977719834  0.9167606724544320  0.2136022111936529   T   T   T
  0.5012502957782650  0.4983434236595204  0.3162687795627236   T   T   T
  0.5837522607141182  0.5831663772696316  0.3175243822442353   T   T   T
  0.6669057555390233  0.6673069909421583  0.3170739685752748   T   T   T
  0.7511126586418769  0.4990138295803132  0.3166479043618142   T   T   T
  0.8337962622121553  0.5831716223986252  0.3163636511621373   T   T   T
  0.9162770962884963  0.6670231794943042  0.3164900599852989   T   T   T
  0.4993269968267379  0.7513689042800290  0.3163574240549565   T   T   T
  0.5830907303256294  0.8339202048005062  0.3163245375656065   T   T   T
  0.6667002338704149  0.9166925189878499  0.3164953736414789   T   T   T
  0.7501085295897049  0.7503192713748056  0.3164341153972796   T   T   T
  0.8332329264474448  0.8334425723673268  0.3165440532726513   T   T   T
  0.9165178807688732  0.9169075849865185  0.3164681144558960   T   T   T
  0.2282373943540603  0.4316854887234099  0.5383070252628863   T   T   T
  0.2025833438110091  0.4152888981927090  0.4570735310114059   T   T   T
  0.2142589425338562  0.5312095078988629  0.4123447493458525   T   T   T
  0.3093418063438581  0.4452308707347656  0.4461627346410297   T   T   T
  0.2775451928128922  0.5383609245204495  0.5505374625191349   T   T   T
  0.3115018813280724  0.6158193869571272  0.4308371472933519   T   T   T
  0.3780787411457144  0.5078285533861279  0.4440592364841223   T   T   T
  0.4239202080779921  0.5261860815837421  0.5488994641977187   T   T   T
  0.4150202750687746  0.6484677269945784  0.4438225885105647   T   T   T
  0.4860317728488305  0.5417713110646440  0.4483328395583767   T   T   T
  0.5201883388115286  0.5852986028246335  0.5685725669895202   T   T   T
  0.5817386906934794  0.6026491975903476  0.4312818426102940   T   T   T
  0.6161402097167389  0.5109101350679305  0.4782882436415696   T   T   T
  0.6443652441689790  0.6017862626324445  0.5703872511738864   T   T   T
  0.7482882501756249  0.4614605174855751  0.5302847984534683   T   T   T
  0.7916424248723173  0.5273475815220555  0.5308759487544245   T   T   T
  0.7594784183913215  0.5043709455592439  0.4542944904883610   T   T   T
  0.0967184027453848  0.5646328871686317  0.5470965346173264   T   T   T
  0.0733806919927264  0.4914050950310055  0.5131487089804464   T   T   T
  0.0785108889135617  0.5640649602234380  0.4597034206021494   T   T   T
  0.1329187755954410  0.6477554246134811  0.5248060791374658   T   T   T
  0.1648403840173032  0.6655326794562407  0.4460786767146327   T   T   T
  0.1964194684872076  0.6930532685776716  0.5204472083865723   T   T   T
  0.3026768134561620  0.7119991166664267  0.5444749363665148   T   T   T
  0.3789273604791420  0.6565871433928470  0.6063220818371611   T   T   T
  0.2945079697774076  0.6398830974997241  0.5971843765251379   T   T   T
  0.4648225026457734  0.7394549740000942  0.4819680900264019   T   T   T
  0.5128223513081692  0.7209449734751009  0.5620262766844057   T   T   T
  0.4120372588823957  0.7360401719812053  0.5544280012257566   T   T   T
  0.6780202928048940  0.6567441695683407  0.4352777829563930   T   T   T
  0.7032452793704763  0.6795953225095218  0.5147225973529705   T   T   T
  0.5978440792501540  0.7239399642089162  0.4904034543439992   T   T   T
  0.1979444222968282  0.4635703091172776  0.4914705812485747   T   T   T
  0.2489965793743292  0.4977086209902130  0.4599709216284459   T   T   T
  0.1069057680722130  0.5244929226801951  0.5038955274172070   T   T   T
  0.2620208277785608  0.5611658464153926  0.4984683584733141   T   T   T
  0.3356857173371706  0.5659588317783963  0.4698870641729314   T   T   T
  0.1846972599008639  0.6464363896688059  0.4984885866134338   T   T   T
  0.3880321191844140  0.5832465881528665  0.5195814312143704   T   T   T
  0.4498836736512640  0.5971157494898670  0.4796747077063958   T   T   T
  0.3378929144158345  0.6520591049065371  0.5695572929196235   T   T   T
  0.5090115631860886  0.6157711233891333  0.5191690384897173   T   T   T
  0.5926978995429339  0.5773363136948917  0.4836447037868495   T   T   T
  0.4725700233966753  0.7082823222979316  0.5304101891415324   T   T   T
  0.6585842855870134  0.5920106304890875  0.5162901393532751   T   T   T
  0.7443317855412818  0.5169011740789302  0.5080777657078573   T   T   T
  0.6583710666849871  0.6680948571188300  0.4886837193680117   T   T   T
 
  0.00000000E+00  0.00000000E+00  0.00000000E+00
  0.00000000E+00  0.00000000E+00  0.00000000E+00
  0.00000000E+00  0.00000000E+00  0.00000000E+00
  0.00000000E+00  0.00000000E+00  0.00000000E+00
  0.00000000E+00  0.00000000E+00  0.00000000E+00
  0.00000000E+00  0.00000000E+00  0.00000000E+00
  0.00000000E+00  0.00000000E+00  0.00000000E+00
  0.00000000E+00  0.00000000E+00  0.00000000E+00
  0.00000000E+00  0.00000000E+00  0.00000000E+00
  0.00000000E+00  0.00000000E+00  0.00000000E+00
  0.00000000E+00  0.00000000E+00  0.00000000E+00
  0.00000000E+00  0.00000000E+00  0.00000000E+00
  0.00000000E+00  0.00000000E+00  0.00000000E+00
  0.00000000E+00  0.00000000E+00  0.00000000E+00
  0.00000000E+00  0.00000000E+00  0.00000000E+00
  0.00000000E+00  0.00000000E+00  0.00000000E+00
  0.00000000E+00  0.00000000E+00  0.00000000E+00
  0.00000000E+00  0.00000000E+00  0.00000000E+00
  0.00000000E+00  0.00000000E+00  0.00000000E+00
  0.00000000E+00  0.00000000E+00  0.00000000E+00
  0.00000000E+00  0.00000000E+00  0.00000000E+00
  0.00000000E+00  0.00000000E+00  0.00000000E+00
  0.00000000E+00  0.00000000E+00  0.00000000E+00
  0.00000000E+00  0.00000000E+00  0.00000000E+00
  0.00000000E+00  0.00000000E+00  0.00000000E+00
  0.00000000E+00  0.00000000E+00  0.00000000E+00
  0.00000000E+00  0.00000000E+00  0.00000000E+00
  0.00000000E+00  0.00000000E+00  0.00000000E+00
  0.00000000E+00  0.00000000E+00  0.00000000E+00
  0.00000000E+00  0.00000000E+00  0.00000000E+00
  0.00000000E+00  0.00000000E+00  0.00000000E+00
  0.00000000E+00  0.00000000E+00  0.00000000E+00
  0.00000000E+00  0.00000000E+00  0.00000000E+00
  0.00000000E+00  0.00000000E+00  0.00000000E+00
  0.00000000E+00  0.00000000E+00  0.00000000E+00
  0.00000000E+00  0.00000000E+00  0.00000000E+00
  0.00000000E+00  0.00000000E+00  0.00000000E+00
  0.00000000E+00  0.00000000E+00  0.00000000E+00
  0.00000000E+00  0.00000000E+00  0.00000000E+00
  0.00000000E+00  0.00000000E+00  0.00000000E+00
  0.00000000E+00  0.00000000E+00  0.00000000E+00
  0.00000000E+00  0.00000000E+00  0.00000000E+00
  0.00000000E+00  0.00000000E+00  0.00000000E+00
  0.00000000E+00  0.00000000E+00  0.00000000E+00
  0.00000000E+00  0.00000000E+00  0.00000000E+00
  0.00000000E+00  0.00000000E+00  0.00000000E+00
  0.00000000E+00  0.00000000E+00  0.00000000E+00
  0.00000000E+00  0.00000000E+00  0.00000000E+00
  0.00000000E+00  0.00000000E+00  0.00000000E+00
  0.00000000E+00  0.00000000E+00  0.00000000E+00
  0.00000000E+00  0.00000000E+00  0.00000000E+00
  0.00000000E+00  0.00000000E+00  0.00000000E+00
  0.00000000E+00  0.00000000E+00  0.00000000E+00
  0.00000000E+00  0.00000000E+00  0.00000000E+00
  0.00000000E+00  0.00000000E+00  0.00000000E+00
  0.00000000E+00  0.00000000E+00  0.00000000E+00
  0.00000000E+00  0.00000000E+00  0.00000000E+00
  0.00000000E+00  0.00000000E+00  0.00000000E+00
  0.00000000E+00  0.00000000E+00  0.00000000E+00
  0.00000000E+00  0.00000000E+00  0.00000000E+00
  0.00000000E+00  0.00000000E+00  0.00000000E+00
  0.00000000E+00  0.00000000E+00  0.00000000E+00
  0.00000000E+00  0.00000000E+00  0.00000000E+00
  0.00000000E+00  0.00000000E+00  0.00000000E+00
  0.00000000E+00  0.00000000E+00  0.00000000E+00
  0.00000000E+00  0.00000000E+00  0.00000000E+00
  0.00000000E+00  0.00000000E+00  0.00000000E+00
  0.00000000E+00  0.00000000E+00  0.00000000E+00
  0.00000000E+00  0.00000000E+00  0.00000000E+00
  0.00000000E+00  0.00000000E+00  0.00000000E+00
  0.00000000E+00  0.00000000E+00  0.00000000E+00
  0.00000000E+00  0.00000000E+00  0.00000000E+00
  0.00000000E+00  0.00000000E+00  0.00000000E+00
  0.00000000E+00  0.00000000E+00  0.00000000E+00
  0.00000000E+00  0.00000000E+00  0.00000000E+00
  0.00000000E+00  0.00000000E+00  0.00000000E+00
  0.00000000E+00  0.00000000E+00  0.00000000E+00
  0.00000000E+00  0.00000000E+00  0.00000000E+00
  0.00000000E+00  0.00000000E+00  0.00000000E+00
  0.00000000E+00  0.00000000E+00  0.00000000E+00
  0.00000000E+00  0.00000000E+00  0.00000000E+00
  0.00000000E+00  0.00000000E+00  0.00000000E+00
  0.00000000E+00  0.00000000E+00  0.00000000E+00
  0.00000000E+00  0.00000000E+00  0.00000000E+00
  0.00000000E+00  0.00000000E+00  0.00000000E+00
  0.00000000E+00  0.00000000E+00  0.00000000E+00
  0.00000000E+00  0.00000000E+00  0.00000000E+00
  0.00000000E+00  0.00000000E+00  0.00000000E+00
  0.00000000E+00  0.00000000E+00  0.00000000E+00
  0.00000000E+00  0.00000000E+00  0.00000000E+00
  0.00000000E+00  0.00000000E+00  0.00000000E+00
  0.00000000E+00  0.00000000E+00  0.00000000E+00
  0.00000000E+00  0.00000000E+00  0.00000000E+00
  0.00000000E+00  0.00000000E+00  0.00000000E+00
  0.00000000E+00  0.00000000E+00  0.00000000E+00
  0.00000000E+00  0.00000000E+00  0.00000000E+00
  0.00000000E+00  0.00000000E+00  0.00000000E+00
  0.00000000E+00  0.00000000E+00  0.00000000E+00
  0.00000000E+00  0.00000000E+00  0.00000000E+00
  0.00000000E+00  0.00000000E+00  0.00000000E+00
  0.00000000E+00  0.00000000E+00  0.00000000E+00
  0.00000000E+00  0.00000000E+00  0.00000000E+00
  0.00000000E+00  0.00000000E+00  0.00000000E+00
  0.00000000E+00  0.00000000E+00  0.00000000E+00
  0.00000000E+00  0.00000000E+00  0.00000000E+00
  0.00000000E+00  0.00000000E+00  0.00000000E+00
  0.00000000E+00  0.00000000E+00  0.00000000E+00
  0.00000000E+00  0.00000000E+00  0.00000000E+00
  0.00000000E+00  0.00000000E+00  0.00000000E+00
  0.00000000E+00  0.00000000E+00  0.00000000E+00
  0.00000000E+00  0.00000000E+00  0.00000000E+00
  0.00000000E+00  0.00000000E+00  0.00000000E+00
  0.00000000E+00  0.00000000E+00  0.00000000E+00
  0.00000000E+00  0.00000000E+00  0.00000000E+00
  0.00000000E+00  0.00000000E+00  0.00000000E+00
  0.00000000E+00  0.00000000E+00  0.00000000E+00
  0.00000000E+00  0.00000000E+00  0.00000000E+00
  0.00000000E+00  0.00000000E+00  0.00000000E+00
  0.00000000E+00  0.00000000E+00  0.00000000E+00
  0.00000000E+00  0.00000000E+00  0.00000000E+00
  0.00000000E+00  0.00000000E+00  0.00000000E+00
  0.00000000E+00  0.00000000E+00  0.00000000E+00
  0.00000000E+00  0.00000000E+00  0.00000000E+00
  0.00000000E+00  0.00000000E+00  0.00000000E+00
  0.00000000E+00  0.00000000E+00  0.00000000E+00
  0.00000000E+00  0.00000000E+00  0.00000000E+00
  0.00000000E+00  0.00000000E+00  0.00000000E+00
  0.00000000E+00  0.00000000E+00  0.00000000E+00
  0.00000000E+00  0.00000000E+00  0.00000000E+00
  0.00000000E+00  0.00000000E+00  0.00000000E+00
  0.00000000E+00  0.00000000E+00  0.00000000E+00
  0.00000000E+00  0.00000000E+00  0.00000000E+00
  0.00000000E+00  0.00000000E+00  0.00000000E+00
  0.00000000E+00  0.00000000E+00  0.00000000E+00
  0.00000000E+00  0.00000000E+00  0.00000000E+00
  0.00000000E+00  0.00000000E+00  0.00000000E+00
  0.00000000E+00  0.00000000E+00  0.00000000E+00
  0.00000000E+00  0.00000000E+00  0.00000000E+00
  0.00000000E+00  0.00000000E+00  0.00000000E+00
  0.00000000E+00  0.00000000E+00  0.00000000E+00
  0.00000000E+00  0.00000000E+00  0.00000000E+00
  0.00000000E+00  0.00000000E+00  0.00000000E+00
  0.00000000E+00  0.00000000E+00  0.00000000E+00
  0.00000000E+00  0.00000000E+00  0.00000000E+00
  0.00000000E+00  0.00000000E+00  0.00000000E+00
  0.00000000E+00  0.00000000E+00  0.00000000E+00
  0.00000000E+00  0.00000000E+00  0.00000000E+00
  0.00000000E+00  0.00000000E+00  0.00000000E+00
  0.00000000E+00  0.00000000E+00  0.00000000E+00
  0.00000000E+00  0.00000000E+00  0.00000000E+00
  0.00000000E+00  0.00000000E+00  0.00000000E+00
  0.00000000E+00  0.00000000E+00  0.00000000E+00
  0.00000000E+00  0.00000000E+00  0.00000000E+00
  0.00000000E+00  0.00000000E+00  0.00000000E+00
  0.00000000E+00  0.00000000E+00  0.00000000E+00
  0.00000000E+00  0.00000000E+00  0.00000000E+00
  0.00000000E+00  0.00000000E+00  0.00000000E+00
  0.00000000E+00  0.00000000E+00  0.00000000E+00
  0.00000000E+00  0.00000000E+00  0.00000000E+00
  0.00000000E+00  0.00000000E+00  0.00000000E+00
  0.00000000E+00  0.00000000E+00  0.00000000E+00
  0.00000000E+00  0.00000000E+00  0.00000000E+00
  0.00000000E+00  0.00000000E+00  0.00000000E+00
  0.00000000E+00  0.00000000E+00  0.00000000E+00
  0.00000000E+00  0.00000000E+00  0.00000000E+00
  0.00000000E+00  0.00000000E+00  0.00000000E+00
  0.00000000E+00  0.00000000E+00  0.00000000E+00
  0.00000000E+00  0.00000000E+00  0.00000000E+00
  0.00000000E+00  0.00000000E+00  0.00000000E+00
  0.00000000E+00  0.00000000E+00  0.00000000E+00
  0.00000000E+00  0.00000000E+00  0.00000000E+00
  0.00000000E+00  0.00000000E+00  0.00000000E+00
  0.00000000E+00  0.00000000E+00  0.00000000E+00
  0.00000000E+00  0.00000000E+00  0.00000000E+00
  0.00000000E+00  0.00000000E+00  0.00000000E+00
  0.00000000E+00  0.00000000E+00  0.00000000E+00
  0.00000000E+00  0.00000000E+00  0.00000000E+00
  0.00000000E+00  0.00000000E+00  0.00000000E+00
  0.00000000E+00  0.00000000E+00  0.00000000E+00
  0.00000000E+00  0.00000000E+00  0.00000000E+00
  0.00000000E+00  0.00000000E+00  0.00000000E+00
  0.00000000E+00  0.00000000E+00  0.00000000E+00
  0.00000000E+00  0.00000000E+00  0.00000000E+00
  0.00000000E+00  0.00000000E+00  0.00000000E+00
  0.00000000E+00  0.00000000E+00  0.00000000E+00
  0.00000000E+00  0.00000000E+00  0.00000000E+00
  0.00000000E+00  0.00000000E+00  0.00000000E+00
  0.00000000E+00  0.00000000E+00  0.00000000E+00
  0.00000000E+00  0.00000000E+00  0.00000000E+00
  0.00000000E+00  0.00000000E+00  0.00000000E+00
  0.00000000E+00  0.00000000E+00  0.00000000E+00
  0.00000000E+00  0.00000000E+00  0.00000000E+00
  0.00000000E+00  0.00000000E+00  0.00000000E+00
  0.00000000E+00  0.00000000E+00  0.00000000E+00
  0.00000000E+00  0.00000000E+00  0.00000000E+00
  0.00000000E+00  0.00000000E+00  0.00000000E+00
  0.00000000E+00  0.00000000E+00  0.00000000E+00
  0.00000000E+00  0.00000000E+00  0.00000000E+00
  0.00000000E+00  0.00000000E+00  0.00000000E+00
  0.00000000E+00  0.00000000E+00  0.00000000E+00
  0.00000000E+00  0.00000000E+00  0.00000000E+00
  0.00000000E+00  0.00000000E+00  0.00000000E+00
  0.00000000E+00  0.00000000E+00  0.00000000E+00
  0.00000000E+00  0.00000000E+00  0.00000000E+00
  0.00000000E+00  0.00000000E+00  0.00000000E+00
  0.00000000E+00  0.00000000E+00  0.00000000E+00
  0.00000000E+00  0.00000000E+00  0.00000000E+00
  0.00000000E+00  0.00000000E+00  0.00000000E+00
  0.00000000E+00  0.00000000E+00  0.00000000E+00
  0.00000000E+00  0.00000000E+00  0.00000000E+00
  0.00000000E+00  0.00000000E+00  0.00000000E+00
  0.00000000E+00  0.00000000E+00  0.00000000E+00
  0.00000000E+00  0.00000000E+00  0.00000000E+00
  0.00000000E+00  0.00000000E+00  0.00000000E+00
  0.00000000E+00  0.00000000E+00  0.00000000E+00
  0.00000000E+00  0.00000000E+00  0.00000000E+00
  0.00000000E+00  0.00000000E+00  0.00000000E+00
  0.00000000E+00  0.00000000E+00  0.00000000E+00
  0.00000000E+00  0.00000000E+00  0.00000000E+00
  0.00000000E+00  0.00000000E+00  0.00000000E+00
  0.00000000E+00  0.00000000E+00  0.00000000E+00
  0.00000000E+00  0.00000000E+00  0.00000000E+00
  0.00000000E+00  0.00000000E+00  0.00000000E+00
  0.00000000E+00  0.00000000E+00  0.00000000E+00
  0.00000000E+00  0.00000000E+00  0.00000000E+00
  0.00000000E+00  0.00000000E+00  0.00000000E+00
  0.00000000E+00  0.00000000E+00  0.00000000E+00
  0.00000000E+00  0.00000000E+00  0.00000000E+00
  0.00000000E+00  0.00000000E+00  0.00000000E+00
  0.00000000E+00  0.00000000E+00  0.00000000E+00
  0.00000000E+00  0.00000000E+00  0.00000000E+00
  0.00000000E+00  0.00000000E+00  0.00000000E+00
  0.00000000E+00  0.00000000E+00  0.00000000E+00
  0.00000000E+00  0.00000000E+00  0.00000000E+00
  0.00000000E+00  0.00000000E+00  0.00000000E+00
  0.00000000E+00  0.00000000E+00  0.00000000E+00
  0.00000000E+00  0.00000000E+00  0.00000000E+00
  0.00000000E+00  0.00000000E+00  0.00000000E+00
  0.00000000E+00  0.00000000E+00  0.00000000E+00
