 O  C  H 
 1.0000000000000000
    10.9005742919999999    0.0000000000000000    0.0000000000000000
     0.0000000000000000   10.2771600009000004    0.0000000000000000
     0.0000000000000000    0.0000000000000000   20.0000000000000000
 O   C   H  
   4   9   8
Cartesian
  1.2333000000000001  0.5540000000000000  0.7792000000000000
 -0.6952000000000000 -2.7147999999999999 -0.7502000000000000
  0.7958000000000000 -2.1842999999999999  0.8685000000000000
  1.7813000000000001  0.8105000000000000 -1.4821000000000000
 -0.0857000000000000  0.6088000000000000  0.4403000000000000
 -0.7927000000000000 -0.5515000000000000  0.1244000000000000
 -0.7288000000000000  1.8464000000000000  0.4133000000000000
 -2.1425999999999998 -0.4741000000000000 -0.2184000000000000
 -2.0787000000000000  1.9238000000000000  0.0706000000000000
 -2.7854999999999999  0.7635999999999999 -0.2453000000000000
 -0.1409000000000000 -1.8535999999999999  0.1477000000000000
  2.1093999999999999  0.6715000000000000 -0.3113000000000000
  3.5305000000000000  0.5996000000000000  0.1635000000000000
 -0.1851000000000000  2.7545000000000002  0.6593000000000000
 -2.7246999999999999 -1.3605000000000000 -0.4564000000000000
 -2.5796999999999999  2.8872000000000000  0.0506000000000000
 -3.8374000000000001  0.8238000000000000 -0.5090000000000000
  3.7290000000000001  1.4184000000000001  0.8593000000000000
  4.2045000000000003  0.6969000000000000 -0.6924000000000000
  3.7105000000000001 -0.3659000000000000  0.6425999999999999
 -0.2555000000000000 -3.5916000000000001 -0.7337000000000000
