Au  O  C  N  H                          
   1.00000000000000     
    20.3604714350000009    0.0000000000000000    0.0000000000000000
    10.1802357175000004   17.6326854956999988    0.0000000000000000
     0.0000000000000000    0.0000000000000000   20.0000000000000000
   Au   O    C    N    H 
   192     1    15     4    18
Selective dynamics
Direct
  0.0000000000000000  0.0000000000000000  0.0000000000000000   F   F   F
  0.0833333333338544  0.0833333333347497  0.0000000000000000   F   F   F
  0.1666666666656269  0.1666666666638292  0.0000000000000000   F   F   F
  0.2499999999975415  0.0000000000000000  0.0000000000000000   F   F   F
  0.3333333333313959  0.0833333333347497  0.0000000000000000   F   F   F
  0.4166666666680854  0.1666666666638292  0.0000000000000000   F   F   F
  0.0000000000019398  0.2499999999985789  0.0000000000000000   F   F   F
  0.0833333333308772  0.3333333333333357  0.0000000000000000   F   F   F
  0.1666666666647316  0.4166666666680854  0.0000000000000000   F   F   F
  0.2499999999994813  0.2499999999985789  0.0000000000000000   F   F   F
  0.3333333333333357  0.3333333333333357  0.0000000000000000   F   F   F
  0.4166666666622731  0.4166666666680854  0.0000000000000000   F   F   F
  0.0833333333325115  0.0000000000000000  0.1199752285000031   F   F   F
  0.0000000000005969  0.1666666666638292  0.1199752285000031   F   F   F
  0.1666666666663659  0.0833333333347497  0.1199752285000031   F   F   F
  0.3333333333349700  0.0000000000000000  0.1199752285000031   F   F   F
  0.2500000000030553  0.1666666666638292  0.1199752285000031   F   F   F
  0.4166666666639145  0.0833333333347497  0.1199752285000031   F   F   F
  0.0833333333344513  0.2499999999985789  0.1199752285000031   F   F   F
  0.9999999999997016  0.4166666666680854  0.1199752285000031   F   F   F
  0.1666666666683057  0.3333333333333357  0.1199752285000031   F   F   F
  0.3333333333319928  0.2499999999985789  0.1199752285000031   F   F   F
  0.2499999999972431  0.4166666666680854  0.1199752285000031   F   F   F
  0.4166666666658472  0.3333333333333357  0.1199752285000031   F   F   F
  0.0001830401555496  0.0831398380112327  0.2380427486354505   T   T   T
  0.1666133362894011  0.0001650829122202  0.2381124990575860   T   T   T
  0.0833464960065356  0.1667449523355972  0.2380295570415229   T   T   T
  0.2499940746369867  0.0834189758523637  0.2380426248308524   T   T   T
  0.4166187866530038  0.0001073964761893  0.2380123230582452   T   T   T
  0.3332739736695476  0.1667702638045534  0.2380938416621536   T   T   T
  0.0000648696781556  0.3333935686083516  0.2380716745557442   T   T   T
  0.1667066694037490  0.2500645243099179  0.2380604776219504   T   T   T
  0.0835245901410911  0.4165533361167998  0.2379610683215803   T   T   T
  0.2502819056222753  0.3330336949800304  0.2380457379115006   T   T   T
  0.4166288209897235  0.2499013282901340  0.2381230763501344   T   T   T
  0.3335709663814747  0.4160353877585036  0.2375523897187184   T   T   T
  0.9999026087314050  0.0001571953849315  0.3584176623274060   T   T   T
  0.0832879946925993  0.0834089669332159  0.3583647874986018   T   T   T
  0.1667008217863316  0.1666648418388884  0.3583985486843708   T   T   T
  0.2499952750001274  0.0001584565103628  0.3584992420444293   T   T   T
  0.3333295525270669  0.0833752462033288  0.3584495473605149   T   T   T
  0.4167105426104200  0.1665896794262454  0.3586478863302972   T   T   T
  0.0004225768734915  0.2498850438961328  0.3586782138997457   T   T   T
  0.0835531073685603  0.3332849877528264  0.3585776103406063   T   T   T
  0.1672037539862003  0.4160557007286348  0.3588468768068613   T   T   T
  0.2500586287511619  0.2498914103734916  0.3587744541509842   T   T   T
  0.3337013894440070  0.3324931108846060  0.3595376894541687   T   T   T
  0.4167402885361911  0.4160394603440284  0.3583245884443892   T   T   T
  0.9999999999989626  0.4999999999971649  0.0000000000000000   F   F   F
  0.0833333333328170  0.5833333333319146  0.0000000000000000   F   F   F
  0.1666666666666643  0.6666666666666643  0.0000000000000000   F   F   F
  0.2500000000014211  0.4999999999971649  0.0000000000000000   F   F   F
  0.3333333333303585  0.5833333333319146  0.0000000000000000   F   F   F
  0.4166666666642129  0.6666666666666643  0.0000000000000000   F   F   F
  0.9999999999980602  0.7500000000014211  0.0000000000000000   F   F   F
  0.0833333333347497  0.8333333333305006  0.0000000000000000   F   F   F
  0.1666666666636942  0.9166666666652503  0.0000000000000000   F   F   F
  0.2499999999956088  0.7500000000014211  0.0000000000000000   F   F   F
  0.3333333333322983  0.8333333333305006  0.0000000000000000   F   F   F
  0.4166666666661456  0.9166666666652503  0.0000000000000000   F   F   F
  0.0833333333363910  0.4999999999971649  0.1199752285000031   F   F   F
  0.0000000000016342  0.6666666666666643  0.1199752285000031   F   F   F
  0.1666666666653285  0.5833333333319146  0.1199752285000031   F   F   F
  0.3333333333339326  0.4999999999971649  0.1199752285000031   F   F   F
  0.2499999999991829  0.6666666666666643  0.1199752285000031   F   F   F
  0.4166666666677870  0.5833333333319146  0.1199752285000031   F   F   F
  0.0833333333305788  0.7500000000014211  0.1199752285000031   F   F   F
  0.9999999999986642  0.9166666666652503  0.1199752285000031   F   F   F
  0.1666666666672683  0.8333333333305006  0.1199752285000031   F   F   F
  0.3333333333330373  0.7500000000014211  0.1199752285000031   F   F   F
  0.2500000000011156  0.9166666666652503  0.1199752285000031   F   F   F
  0.4166666666648098  0.8333333333305006  0.1199752285000031   F   F   F
  0.9999447092585498  0.5836224413584522  0.2374877039364628   T   T   T
  0.1670751840197381  0.4995251214980752  0.2378694653863195   T   T   T
  0.0839035315715685  0.6672649289231050  0.2383942263609382   T   T   T
  0.2494850044303241  0.5834610520724300  0.2383232116868063   T   T   T
  0.4172619812211004  0.4990122676550535  0.2368471335357959   T   T   T
  0.3335435904617131  0.6672064491846146  0.2375237032636304   T   T   T
  0.0000459658069116  0.8337004857158110  0.2379387523911553   T   T   T
  0.1668799254857394  0.7499629184068815  0.2384896823771892   T   T   T
  0.0835081228304164  0.9166734755168969  0.2379430612266712   T   T   T
  0.2499974905704228  0.8338559543728188  0.2376149346311038   T   T   T
  0.4167358090635259  0.7507325545350074  0.2380165825448140   T   T   T
  0.3333291523089302  0.9169244450872203  0.2380499812631723   T   T   T
  0.0006625359562162  0.4999841484922500  0.3579503648932243   T   T   T
  0.0842117929737411  0.5833352461163099  0.3559326637455067   T   T   T
  0.1684163453076420  0.6670109225108033  0.3601341645818585   T   T   T
  0.2513668520225218  0.4982375692921249  0.3578457617225447   T   T   T
  0.3352713844703955  0.5824377060597359  0.3548241084318337   T   T   T
  0.4174498601137984  0.6677705573789511  0.3580501573535843   T   T   T
  0.9998018199797062  0.7507805039405548  0.3580870274218633   T   T   T
  0.0831748990097366  0.8338706990698340  0.3584663952507663   T   T   T
  0.1666797203693685  0.9168500781455646  0.3585866250395582   T   T   T
  0.2511413863001092  0.7508462393674407  0.3577408022054833   T   T   T
  0.3334567737159818  0.8341065463155921  0.3587803700830787   T   T   T
  0.4166960910781951  0.9167707258786786  0.3584800752229392   T   T   T
  0.5000000000000000  0.0000000000000000  0.0000000000000000   F   F   F
  0.5833333333289374  0.0833333333347497  0.0000000000000000   F   F   F
  0.6666666666656269  0.1666666666638292  0.0000000000000000   F   F   F
  0.7499999999975415  0.0000000000000000  0.0000000000000000   F   F   F
  0.8333333333313959  0.0833333333347497  0.0000000000000000   F   F   F
  0.9166666666680854  0.1666666666638292  0.0000000000000000   F   F   F
  0.4999999999970228  0.2499999999985789  0.0000000000000000   F   F   F
  0.5833333333308772  0.3333333333333357  0.0000000000000000   F   F   F
  0.6666666666647316  0.4166666666680854  0.0000000000000000   F   F   F
  0.7499999999994813  0.2499999999985789  0.0000000000000000   F   F   F
  0.8333333333333357  0.3333333333333357  0.0000000000000000   F   F   F
  0.9166666666622731  0.4166666666680854  0.0000000000000000   F   F   F
  0.5833333333325115  0.0000000000000000  0.1199752285000031   F   F   F
  0.5000000000005969  0.1666666666638292  0.1199752285000031   F   F   F
  0.6666666666663659  0.0833333333347497  0.1199752285000031   F   F   F
  0.8333333333300601  0.0000000000000000  0.1199752285000031   F   F   F
  0.7499999999981455  0.1666666666638292  0.1199752285000031   F   F   F
  0.9166666666639145  0.0833333333347497  0.1199752285000031   F   F   F
  0.5833333333344513  0.2499999999985789  0.1199752285000031   F   F   F
  0.4999999999997016  0.4166666666680854  0.1199752285000031   F   F   F
  0.6666666666633958  0.3333333333333357  0.1199752285000031   F   F   F
  0.8333333333319928  0.2499999999985789  0.1199752285000031   F   F   F
  0.7499999999972431  0.4166666666680854  0.1199752285000031   F   F   F
  0.9166666666658472  0.3333333333333357  0.1199752285000031   F   F   F
  0.4998885784865575  0.0834650915944643  0.2380681538038728   T   T   T
  0.6666567101543804  0.0000172223167078  0.2380417174588372   T   T   T
  0.5832568728890507  0.1665689424221675  0.2380806296227290   T   T   T
  0.7500334857738421  0.0831920286592464  0.2380153911070058   T   T   T
  0.9167432960463748  0.9998228378451545  0.2380866930115874   T   T   T
  0.8340217417292546  0.1659909287120361  0.2375626490343131   T   T   T
  0.5000133615206844  0.3328359256704467  0.2375792809515205   T   T   T
  0.6670065749587707  0.2494799514457541  0.2376639881768345   T   T   T
  0.5848161563078177  0.4160572632111283  0.2375498527793941   T   T   T
  0.7508963177057129  0.3329464729664005  0.2378907138465812   T   T   T
  0.9170043418327541  0.2498005487544312  0.2378967601532475   T   T   T
  0.8337419982087351  0.4166717646237473  0.2379423468702120   T   T   T
  0.5000353532251510  0.0000541289708226  0.3583103658262354   T   T   T
  0.5832821034090493  0.0834162314806913  0.3585439931359629   T   T   T
  0.6665577538866441  0.1665101156107286  0.3587051275858008   T   T   T
  0.7499672775429356  0.0000043806342241  0.3585261431688233   T   T   T
  0.8333538825346589  0.0829972627925302  0.3586575835433354   T   T   T
  0.9167963154717103  0.1666354535403538  0.3585009258946695   T   T   T
  0.5000343273778259  0.2498505931490013  0.3591004176583779   T   T   T
  0.5829284423739798  0.3335198050099699  0.3563307497542060   T   T   T
  0.6691033866622625  0.4159409466537956  0.3578064611649454   T   T   T
  0.7507489767938863  0.2487123564163878  0.3568978617419059   T   T   T
  0.8348626297016621  0.3329780201903774  0.3583297648399795   T   T   T
  0.9174417111942711  0.4166857249551564  0.3587709776592372   T   T   T
  0.4999999999989626  0.4999999999971649  0.0000000000000000   F   F   F
  0.5833333333328170  0.5833333333319146  0.0000000000000000   F   F   F
  0.6666666666666643  0.6666666666666643  0.0000000000000000   F   F   F
  0.7500000000014211  0.4999999999971649  0.0000000000000000   F   F   F
  0.8333333333303585  0.5833333333319146  0.0000000000000000   F   F   F
  0.9166666666642129  0.6666666666666643  0.0000000000000000   F   F   F
  0.4999999999980602  0.7500000000014211  0.0000000000000000   F   F   F
  0.5833333333347497  0.8333333333305006  0.0000000000000000   F   F   F
  0.6666666666636942  0.9166666666652503  0.0000000000000000   F   F   F
  0.7499999999956088  0.7500000000014211  0.0000000000000000   F   F   F
  0.8333333333322983  0.8333333333305006  0.0000000000000000   F   F   F
  0.9166666666661456  0.9166666666652503  0.0000000000000000   F   F   F
  0.5833333333314741  0.4999999999971649  0.1199752285000031   F   F   F
  0.4999999999967244  0.6666666666666643  0.1199752285000031   F   F   F
  0.6666666666653285  0.5833333333319146  0.1199752285000031   F   F   F
  0.8333333333339326  0.4999999999971649  0.1199752285000031   F   F   F
  0.7499999999991829  0.6666666666666643  0.1199752285000031   F   F   F
  0.9166666666628700  0.5833333333319146  0.1199752285000031   F   F   F
  0.5833333333305788  0.7500000000014211  0.1199752285000031   F   F   F
  0.4999999999986642  0.9166666666652503  0.1199752285000031   F   F   F
  0.6666666666672683  0.8333333333305006  0.1199752285000031   F   F   F
  0.8333333333281203  0.7500000000014211  0.1199752285000031   F   F   F
  0.7499999999962057  0.9166666666652503  0.1199752285000031   F   F   F
  0.9166666666648098  0.8333333333305006  0.1199752285000031   F   F   F
  0.5002642081852852  0.5843157279999218  0.2373656227593727   T   T   T
  0.6672468006579030  0.5000312248741392  0.2380633487696615   T   T   T
  0.5836864522362609  0.6670080463541873  0.2380025161468947   T   T   T
  0.7502634736125701  0.5833630146211770  0.2379716077858054   T   T   T
  0.9168427513096288  0.4999369771863438  0.2380066176829570   T   T   T
  0.8333903443776197  0.6667215527607112  0.2380077359016225   T   T   T
  0.5000809614099756  0.8336373130225432  0.2379818461646526   T   T   T
  0.6668119026260888  0.7500893359400326  0.2380456154027540   T   T   T
  0.5833722709347641  0.9167634370667939  0.2380317599962788   T   T   T
  0.7501061998954748  0.8333694944412086  0.2380405634413307   T   T   T
  0.9167794780783697  0.7501746087256419  0.2377981573960589   T   T   T
  0.8333753541086697  0.9167026903493284  0.2380313038293267   T   T   T
  0.5015355080101790  0.5004350601142913  0.3540889299265712   T   T   T
  0.5846080076833100  0.5836262525044510  0.3580103768396793   T   T   T
  0.6675148641561508  0.6666054077550300  0.3585135659086784   T   T   T
  0.7514564175958423  0.4999492426395978  0.3584551931363366   T   T   T
  0.8343306794745000  0.5834536712354736  0.3584092109474112   T   T   T
  0.9173661997124208  0.6669254723284107  0.3580686100420890   T   T   T
  0.5006844646826460  0.7503619112792250  0.3585846179650905   T   T   T
  0.5835426657254298  0.8334073386337053  0.3583861634321728   T   T   T
  0.6667448365126907  0.9167218616150948  0.3584092891769015   T   T   T
  0.7503753516774255  0.7500363907875852  0.3583879594800639   T   T   T
  0.8332561092811324  0.8335124411115772  0.3585224137836515   T   T   T
  0.9165608679115368  0.9167830928498690  0.3587813366350973   T   T   T
  0.4256115125402405  0.6391942537706322  0.5273215953090884   T   T   T
  0.0900513104007790  0.5445756018811078  0.5285499148309328   T   T   T
  0.1502975271958963  0.5661663962931376  0.5228980678457298   T   T   T
  0.1332591056688787  0.6404631678351099  0.5105012190284188   T   T   T
  0.1893636159359431  0.6609994368989098  0.5058969604286285   T   T   T
  0.2662318961354054  0.6061053533867039  0.5183434216508106   T   T   T
  0.2842804618240593  0.5314500570153807  0.5316808205418551   T   T   T
  0.2276994539859401  0.5106805768912839  0.5318979328222161   T   T   T
  0.3972629299581477  0.5984312844310781  0.5194985387627670   T   T   T
  0.5692995555148026  0.4990036308806743  0.5156360092308797   T   T   T
  0.6467604268717269  0.4452545874748882  0.5193199661392607   T   T   T
  0.6747191581086971  0.3670697483275214  0.5209613905292283   T   T   T
  0.6215053479717263  0.3413666736826595  0.5168893153969848   T   T   T
  0.5436584062965123  0.3946248401652604  0.5123997624526744   T   T   T
  0.5170720174276547  0.4730580412354087  0.5130141206967208   T   T   T
  0.7576298882710198  0.3114287611988464  0.5291993708632021   T   T   T
  0.2478414879591992  0.4364479665846102  0.5448258557337260   T   T   T
  0.3181908050046858  0.6320946678346232  0.5178863543136839   T   T   T
  0.4377765021423622  0.5209524240233429  0.5108990133356945   T   T   T
  0.6458939746074660  0.2646603105495052  0.5206358369929057   T   T   T
  0.0739834814680868  0.6842415282464027  0.5038418259259811   T   T   T
  0.1734877640023095  0.7203478237434189  0.4993013288506851   T   T   T
  0.3411511911730855  0.4882358068559792  0.5466037706585495   T   T   T
  0.2104429926575705  0.4197364730092845  0.5310929441284977   T   T   T
  0.3028269217895899  0.3964806470353661  0.5368633372380728   T   T   T
  0.2945876504143831  0.6894528827692975  0.5153586479574214   T   T   T
  0.0978557527329831  0.5014019441131585  0.4908763247922538   T   T   T
  0.0334781056616037  0.5939136867630571  0.5203946153144593   T   T   T
  0.0910728634280699  0.5203542057667944  0.5781629051478876   T   T   T
  0.4087315260708800  0.4965197078876426  0.4918378747757869   T   T   T
  0.6873814544737443  0.4653537921153631  0.5220586419433341   T   T   T
  0.5029838892350832  0.3744837417844479  0.5107349831087246   T   T   T
  0.7686482011410787  0.2793993113879715  0.5763013991606915   T   T   T
  0.7798615380956594  0.2692409165844182  0.4881747410143620   T   T   T
  0.7908994260051504  0.3403839513170749  0.5292124483543823   T   T   T
  0.7004805973655011  0.2288038356343091  0.5067559880096731   T   T   T
  0.6095316755252339  0.2482449039057000  0.5027178133830597   T   T   T
  0.5493553999178465  0.5594161747968927  0.5163370011788838   T   T   T
 
  0.00000000E+00  0.00000000E+00  0.00000000E+00
  0.00000000E+00  0.00000000E+00  0.00000000E+00
  0.00000000E+00  0.00000000E+00  0.00000000E+00
  0.00000000E+00  0.00000000E+00  0.00000000E+00
  0.00000000E+00  0.00000000E+00  0.00000000E+00
  0.00000000E+00  0.00000000E+00  0.00000000E+00
  0.00000000E+00  0.00000000E+00  0.00000000E+00
  0.00000000E+00  0.00000000E+00  0.00000000E+00
  0.00000000E+00  0.00000000E+00  0.00000000E+00
  0.00000000E+00  0.00000000E+00  0.00000000E+00
  0.00000000E+00  0.00000000E+00  0.00000000E+00
  0.00000000E+00  0.00000000E+00  0.00000000E+00
  0.00000000E+00  0.00000000E+00  0.00000000E+00
  0.00000000E+00  0.00000000E+00  0.00000000E+00
  0.00000000E+00  0.00000000E+00  0.00000000E+00
  0.00000000E+00  0.00000000E+00  0.00000000E+00
  0.00000000E+00  0.00000000E+00  0.00000000E+00
  0.00000000E+00  0.00000000E+00  0.00000000E+00
  0.00000000E+00  0.00000000E+00  0.00000000E+00
  0.00000000E+00  0.00000000E+00  0.00000000E+00
  0.00000000E+00  0.00000000E+00  0.00000000E+00
  0.00000000E+00  0.00000000E+00  0.00000000E+00
  0.00000000E+00  0.00000000E+00  0.00000000E+00
  0.00000000E+00  0.00000000E+00  0.00000000E+00
  0.00000000E+00  0.00000000E+00  0.00000000E+00
  0.00000000E+00  0.00000000E+00  0.00000000E+00
  0.00000000E+00  0.00000000E+00  0.00000000E+00
  0.00000000E+00  0.00000000E+00  0.00000000E+00
  0.00000000E+00  0.00000000E+00  0.00000000E+00
  0.00000000E+00  0.00000000E+00  0.00000000E+00
  0.00000000E+00  0.00000000E+00  0.00000000E+00
  0.00000000E+00  0.00000000E+00  0.00000000E+00
  0.00000000E+00  0.00000000E+00  0.00000000E+00
  0.00000000E+00  0.00000000E+00  0.00000000E+00
  0.00000000E+00  0.00000000E+00  0.00000000E+00
  0.00000000E+00  0.00000000E+00  0.00000000E+00
  0.00000000E+00  0.00000000E+00  0.00000000E+00
  0.00000000E+00  0.00000000E+00  0.00000000E+00
  0.00000000E+00  0.00000000E+00  0.00000000E+00
  0.00000000E+00  0.00000000E+00  0.00000000E+00
  0.00000000E+00  0.00000000E+00  0.00000000E+00
  0.00000000E+00  0.00000000E+00  0.00000000E+00
  0.00000000E+00  0.00000000E+00  0.00000000E+00
  0.00000000E+00  0.00000000E+00  0.00000000E+00
  0.00000000E+00  0.00000000E+00  0.00000000E+00
  0.00000000E+00  0.00000000E+00  0.00000000E+00
  0.00000000E+00  0.00000000E+00  0.00000000E+00
  0.00000000E+00  0.00000000E+00  0.00000000E+00
  0.00000000E+00  0.00000000E+00  0.00000000E+00
  0.00000000E+00  0.00000000E+00  0.00000000E+00
  0.00000000E+00  0.00000000E+00  0.00000000E+00
  0.00000000E+00  0.00000000E+00  0.00000000E+00
  0.00000000E+00  0.00000000E+00  0.00000000E+00
  0.00000000E+00  0.00000000E+00  0.00000000E+00
  0.00000000E+00  0.00000000E+00  0.00000000E+00
  0.00000000E+00  0.00000000E+00  0.00000000E+00
  0.00000000E+00  0.00000000E+00  0.00000000E+00
  0.00000000E+00  0.00000000E+00  0.00000000E+00
  0.00000000E+00  0.00000000E+00  0.00000000E+00
  0.00000000E+00  0.00000000E+00  0.00000000E+00
  0.00000000E+00  0.00000000E+00  0.00000000E+00
  0.00000000E+00  0.00000000E+00  0.00000000E+00
  0.00000000E+00  0.00000000E+00  0.00000000E+00
  0.00000000E+00  0.00000000E+00  0.00000000E+00
  0.00000000E+00  0.00000000E+00  0.00000000E+00
  0.00000000E+00  0.00000000E+00  0.00000000E+00
  0.00000000E+00  0.00000000E+00  0.00000000E+00
  0.00000000E+00  0.00000000E+00  0.00000000E+00
  0.00000000E+00  0.00000000E+00  0.00000000E+00
  0.00000000E+00  0.00000000E+00  0.00000000E+00
  0.00000000E+00  0.00000000E+00  0.00000000E+00
  0.00000000E+00  0.00000000E+00  0.00000000E+00
  0.00000000E+00  0.00000000E+00  0.00000000E+00
  0.00000000E+00  0.00000000E+00  0.00000000E+00
  0.00000000E+00  0.00000000E+00  0.00000000E+00
  0.00000000E+00  0.00000000E+00  0.00000000E+00
  0.00000000E+00  0.00000000E+00  0.00000000E+00
  0.00000000E+00  0.00000000E+00  0.00000000E+00
  0.00000000E+00  0.00000000E+00  0.00000000E+00
  0.00000000E+00  0.00000000E+00  0.00000000E+00
  0.00000000E+00  0.00000000E+00  0.00000000E+00
  0.00000000E+00  0.00000000E+00  0.00000000E+00
  0.00000000E+00  0.00000000E+00  0.00000000E+00
  0.00000000E+00  0.00000000E+00  0.00000000E+00
  0.00000000E+00  0.00000000E+00  0.00000000E+00
  0.00000000E+00  0.00000000E+00  0.00000000E+00
  0.00000000E+00  0.00000000E+00  0.00000000E+00
  0.00000000E+00  0.00000000E+00  0.00000000E+00
  0.00000000E+00  0.00000000E+00  0.00000000E+00
  0.00000000E+00  0.00000000E+00  0.00000000E+00
  0.00000000E+00  0.00000000E+00  0.00000000E+00
  0.00000000E+00  0.00000000E+00  0.00000000E+00
  0.00000000E+00  0.00000000E+00  0.00000000E+00
  0.00000000E+00  0.00000000E+00  0.00000000E+00
  0.00000000E+00  0.00000000E+00  0.00000000E+00
  0.00000000E+00  0.00000000E+00  0.00000000E+00
  0.00000000E+00  0.00000000E+00  0.00000000E+00
  0.00000000E+00  0.00000000E+00  0.00000000E+00
  0.00000000E+00  0.00000000E+00  0.00000000E+00
  0.00000000E+00  0.00000000E+00  0.00000000E+00
  0.00000000E+00  0.00000000E+00  0.00000000E+00
  0.00000000E+00  0.00000000E+00  0.00000000E+00
  0.00000000E+00  0.00000000E+00  0.00000000E+00
  0.00000000E+00  0.00000000E+00  0.00000000E+00
  0.00000000E+00  0.00000000E+00  0.00000000E+00
  0.00000000E+00  0.00000000E+00  0.00000000E+00
  0.00000000E+00  0.00000000E+00  0.00000000E+00
  0.00000000E+00  0.00000000E+00  0.00000000E+00
  0.00000000E+00  0.00000000E+00  0.00000000E+00
  0.00000000E+00  0.00000000E+00  0.00000000E+00
  0.00000000E+00  0.00000000E+00  0.00000000E+00
  0.00000000E+00  0.00000000E+00  0.00000000E+00
  0.00000000E+00  0.00000000E+00  0.00000000E+00
  0.00000000E+00  0.00000000E+00  0.00000000E+00
  0.00000000E+00  0.00000000E+00  0.00000000E+00
  0.00000000E+00  0.00000000E+00  0.00000000E+00
  0.00000000E+00  0.00000000E+00  0.00000000E+00
  0.00000000E+00  0.00000000E+00  0.00000000E+00
  0.00000000E+00  0.00000000E+00  0.00000000E+00
  0.00000000E+00  0.00000000E+00  0.00000000E+00
  0.00000000E+00  0.00000000E+00  0.00000000E+00
  0.00000000E+00  0.00000000E+00  0.00000000E+00
  0.00000000E+00  0.00000000E+00  0.00000000E+00
  0.00000000E+00  0.00000000E+00  0.00000000E+00
  0.00000000E+00  0.00000000E+00  0.00000000E+00
  0.00000000E+00  0.00000000E+00  0.00000000E+00
  0.00000000E+00  0.00000000E+00  0.00000000E+00
  0.00000000E+00  0.00000000E+00  0.00000000E+00
  0.00000000E+00  0.00000000E+00  0.00000000E+00
  0.00000000E+00  0.00000000E+00  0.00000000E+00
  0.00000000E+00  0.00000000E+00  0.00000000E+00
  0.00000000E+00  0.00000000E+00  0.00000000E+00
  0.00000000E+00  0.00000000E+00  0.00000000E+00
  0.00000000E+00  0.00000000E+00  0.00000000E+00
  0.00000000E+00  0.00000000E+00  0.00000000E+00
  0.00000000E+00  0.00000000E+00  0.00000000E+00
  0.00000000E+00  0.00000000E+00  0.00000000E+00
  0.00000000E+00  0.00000000E+00  0.00000000E+00
  0.00000000E+00  0.00000000E+00  0.00000000E+00
  0.00000000E+00  0.00000000E+00  0.00000000E+00
  0.00000000E+00  0.00000000E+00  0.00000000E+00
  0.00000000E+00  0.00000000E+00  0.00000000E+00
  0.00000000E+00  0.00000000E+00  0.00000000E+00
  0.00000000E+00  0.00000000E+00  0.00000000E+00
  0.00000000E+00  0.00000000E+00  0.00000000E+00
  0.00000000E+00  0.00000000E+00  0.00000000E+00
  0.00000000E+00  0.00000000E+00  0.00000000E+00
  0.00000000E+00  0.00000000E+00  0.00000000E+00
  0.00000000E+00  0.00000000E+00  0.00000000E+00
  0.00000000E+00  0.00000000E+00  0.00000000E+00
  0.00000000E+00  0.00000000E+00  0.00000000E+00
  0.00000000E+00  0.00000000E+00  0.00000000E+00
  0.00000000E+00  0.00000000E+00  0.00000000E+00
  0.00000000E+00  0.00000000E+00  0.00000000E+00
  0.00000000E+00  0.00000000E+00  0.00000000E+00
  0.00000000E+00  0.00000000E+00  0.00000000E+00
  0.00000000E+00  0.00000000E+00  0.00000000E+00
  0.00000000E+00  0.00000000E+00  0.00000000E+00
  0.00000000E+00  0.00000000E+00  0.00000000E+00
  0.00000000E+00  0.00000000E+00  0.00000000E+00
  0.00000000E+00  0.00000000E+00  0.00000000E+00
  0.00000000E+00  0.00000000E+00  0.00000000E+00
  0.00000000E+00  0.00000000E+00  0.00000000E+00
  0.00000000E+00  0.00000000E+00  0.00000000E+00
  0.00000000E+00  0.00000000E+00  0.00000000E+00
  0.00000000E+00  0.00000000E+00  0.00000000E+00
  0.00000000E+00  0.00000000E+00  0.00000000E+00
  0.00000000E+00  0.00000000E+00  0.00000000E+00
  0.00000000E+00  0.00000000E+00  0.00000000E+00
  0.00000000E+00  0.00000000E+00  0.00000000E+00
  0.00000000E+00  0.00000000E+00  0.00000000E+00
  0.00000000E+00  0.00000000E+00  0.00000000E+00
  0.00000000E+00  0.00000000E+00  0.00000000E+00
  0.00000000E+00  0.00000000E+00  0.00000000E+00
  0.00000000E+00  0.00000000E+00  0.00000000E+00
  0.00000000E+00  0.00000000E+00  0.00000000E+00
  0.00000000E+00  0.00000000E+00  0.00000000E+00
  0.00000000E+00  0.00000000E+00  0.00000000E+00
  0.00000000E+00  0.00000000E+00  0.00000000E+00
  0.00000000E+00  0.00000000E+00  0.00000000E+00
  0.00000000E+00  0.00000000E+00  0.00000000E+00
  0.00000000E+00  0.00000000E+00  0.00000000E+00
  0.00000000E+00  0.00000000E+00  0.00000000E+00
  0.00000000E+00  0.00000000E+00  0.00000000E+00
  0.00000000E+00  0.00000000E+00  0.00000000E+00
  0.00000000E+00  0.00000000E+00  0.00000000E+00
  0.00000000E+00  0.00000000E+00  0.00000000E+00
  0.00000000E+00  0.00000000E+00  0.00000000E+00
  0.00000000E+00  0.00000000E+00  0.00000000E+00
  0.00000000E+00  0.00000000E+00  0.00000000E+00
  0.00000000E+00  0.00000000E+00  0.00000000E+00
  0.00000000E+00  0.00000000E+00  0.00000000E+00
  0.00000000E+00  0.00000000E+00  0.00000000E+00
  0.00000000E+00  0.00000000E+00  0.00000000E+00
  0.00000000E+00  0.00000000E+00  0.00000000E+00
  0.00000000E+00  0.00000000E+00  0.00000000E+00
  0.00000000E+00  0.00000000E+00  0.00000000E+00
  0.00000000E+00  0.00000000E+00  0.00000000E+00
  0.00000000E+00  0.00000000E+00  0.00000000E+00
  0.00000000E+00  0.00000000E+00  0.00000000E+00
  0.00000000E+00  0.00000000E+00  0.00000000E+00
  0.00000000E+00  0.00000000E+00  0.00000000E+00
  0.00000000E+00  0.00000000E+00  0.00000000E+00
  0.00000000E+00  0.00000000E+00  0.00000000E+00
  0.00000000E+00  0.00000000E+00  0.00000000E+00
  0.00000000E+00  0.00000000E+00  0.00000000E+00
  0.00000000E+00  0.00000000E+00  0.00000000E+00
  0.00000000E+00  0.00000000E+00  0.00000000E+00
  0.00000000E+00  0.00000000E+00  0.00000000E+00
  0.00000000E+00  0.00000000E+00  0.00000000E+00
  0.00000000E+00  0.00000000E+00  0.00000000E+00
  0.00000000E+00  0.00000000E+00  0.00000000E+00
  0.00000000E+00  0.00000000E+00  0.00000000E+00
  0.00000000E+00  0.00000000E+00  0.00000000E+00
  0.00000000E+00  0.00000000E+00  0.00000000E+00
  0.00000000E+00  0.00000000E+00  0.00000000E+00
  0.00000000E+00  0.00000000E+00  0.00000000E+00
  0.00000000E+00  0.00000000E+00  0.00000000E+00
  0.00000000E+00  0.00000000E+00  0.00000000E+00
  0.00000000E+00  0.00000000E+00  0.00000000E+00
  0.00000000E+00  0.00000000E+00  0.00000000E+00
  0.00000000E+00  0.00000000E+00  0.00000000E+00
  0.00000000E+00  0.00000000E+00  0.00000000E+00
  0.00000000E+00  0.00000000E+00  0.00000000E+00
  0.00000000E+00  0.00000000E+00  0.00000000E+00
  0.00000000E+00  0.00000000E+00  0.00000000E+00
  0.00000000E+00  0.00000000E+00  0.00000000E+00
  0.00000000E+00  0.00000000E+00  0.00000000E+00
  0.00000000E+00  0.00000000E+00  0.00000000E+00
  0.00000000E+00  0.00000000E+00  0.00000000E+00
