Ni  C  H  O                             
   1.00000000000000     
    17.4159994126999997    0.0000000000000000    0.0000000000000000
    -4.9759998320000003    8.6186845275999993    0.0000000000000000
     0.0000000000000000    0.0000000000000000   21.0942993164000008
   Ni   C    H    O 
    84    10    12     3
Selective dynamics
Direct
  0.0038688756218907  0.2533244022476133  0.1960863401526311   T   T   T
 -0.0013261697940368  0.5024832880791199  0.1877270139997495   T   T   T
 -0.0011996784609202  0.7494016443748690  0.1873008430039045   T   T   T
 -0.0018886879320445  0.9956315333204274  0.1880201833669539   T   T   T
  0.1437683712235835  0.2390853757118732  0.1966300884891385   T   T   T
  0.1438625161394303  0.5122137445604025  0.1949711654639139   T   T   T
  0.1422138214617928  0.7546617820119481  0.1867190467752629   T   T   T
  0.1425666181013281  0.9947647436827556  0.1860893445341024   T   T   T
  0.2859810071905419  0.2427162198582871  0.1862899074853944   T   T   T
  0.2883584420133334  0.5055732796710798  0.1923937903076328   T   T   T
  0.2870231153649195  0.7586615243763675  0.1865696232163225   T   T   T
  0.2863146042266199  0.0005872902565816  0.1878024468176040   T   T   T
  0.4298017381240762  0.2503989033675026  0.1880449552122952   T   T   T
  0.4262144548264537  0.4960233152545334  0.1936278499537281   T   T   T
  0.4292161322865085  0.7566761518030374  0.1865927584244176   T   T   T
  0.4296701690981645  0.0034944193140838  0.1880616969777005   T   T   T
  0.5722813817904415  0.2513902718530593  0.1884384241716067   T   T   T
  0.5722463124490610  0.4992291164550404  0.1879421667273198   T   T   T
  0.5709267053633760  0.7503526379866837  0.1929760339093771   T   T   T
  0.5725504696252510  0.0039543254538448  0.1876409404164566   T   T   T
  0.7148621364862374  0.2510208989261802  0.1886351254511861   T   T   T
  0.7147204599428231  0.5008967521216020  0.1886079827126233   T   T   T
  0.7149800909944770  0.7505441065427837  0.1886014601636979   T   T   T
  0.7153016726486021  0.0020121619773082  0.1883784357466964   T   T   T
  0.8574912988475292  0.2499538354403426  0.1886665753760725   T   T   T
  0.8568240864561560  0.5000865809547871  0.1883601111576551   T   T   T
  0.8565405905007540  0.7499486347650943  0.1883422352047244   T   T   T
  0.8572383232528236  0.0008983910282554  0.1885301737856870   T   T   T
  0.0958021679548757  0.0872013492049650  0.0948088066959157   T   T   T
  0.0969803109690234  0.3347839947837140  0.0977357538625060   T   T   T
  0.0957390747390742  0.5813809092557669  0.0943301317333802   T   T   T
  0.0941710096060510  0.8325369863568527  0.0924698545227370   T   T   T
  0.2379196453383427  0.0841041751086074  0.0926922947442168   T   T   T
  0.2376514761586437  0.3353699943192545  0.0957223284782476   T   T   T
  0.2374793261479386  0.5813820242094880  0.0951399142017313   T   T   T
  0.2373933985554690  0.8330705643401518  0.0930684184203808   T   T   T
  0.3808081332637607  0.0844023042335023  0.0938218375051187   T   T   T
  0.3811781513691250  0.3356239081899366  0.0941294916975474   T   T   T
  0.3804877689523756  0.5820698117438736  0.0945283878690234   T   T   T
  0.3807124032916036  0.8333416145528553  0.0932830434223666   T   T   T
  0.5239863866176639  0.0839656969883103  0.0938035659084099   T   T   T
  0.5239344109713422  0.3342219751440198  0.0937557148279491   T   T   T
  0.5226016570794223  0.5836163633885937  0.0960251710782508   T   T   T
  0.5241431708243749  0.8327634830660687  0.0944476564457263   T   T   T
  0.6670824137314619  0.0836286810002211  0.0939994176811483   T   T   T
  0.6670216921990051  0.3338163965816413  0.0942562228379843   T   T   T
  0.6665294923442491  0.5840453863344723  0.0940547486422154   T   T   T
  0.6651102677569369  0.8320662235373332  0.0956423484712497   T   T   T
  0.8099800016810279  0.0836280235391162  0.0939429487345516   T   T   T
  0.8100483853805774  0.3330902807687579  0.0941807004797268   T   T   T
  0.8096097970262791  0.5835879127524916  0.0942088933824438   T   T   T
  0.8096054961619054  0.8343722043274588  0.0939291934261669   T   T   T
  0.9538418905536113  0.0875451360428219  0.0955314042108249   T   T   T
  0.9538752510188382  0.3322292464444796  0.0954322989556547   T   T   T
  0.9522978354187430  0.5817937979460229  0.0935893074237668   T   T   T
  0.9523313040123611  0.8347947926574125  0.0936424259099088   T   T   T
  0.0476185721907996  0.1666675060909810  0.0000000084382989   F   F   F
  0.0476185721907996  0.4166675060909810  0.0000000084382989   F   F   F
  0.0476185721907996  0.6666675060909810  0.0000000084382989   F   F   F
  0.0476185721907996  0.9166675060909810  0.0000000084382989   F   F   F
  0.1904757150479455  0.1666675060909810  0.0000000084382989   F   F   F
  0.1904757150479455  0.4166675060909810  0.0000000084382989   F   F   F
  0.1904757150479455  0.6666675060909810  0.0000000084382989   F   F   F
  0.1904757150479455  0.9166675060909810  0.0000000084382989   F   F   F
  0.3333328579050843  0.1666675060909810  0.0000000084382989   F   F   F
  0.3333328579050843  0.4166675060909810  0.0000000084382989   F   F   F
  0.3333328579050843  0.6666675060909810  0.0000000084382989   F   F   F
  0.3333328579050843  0.9166675060909810  0.0000000084382989   F   F   F
  0.4761900007622302  0.1666675060909810  0.0000000084382989   F   F   F
  0.4761900007622302  0.4166675060909810  0.0000000084382989   F   F   F
  0.4761900007622302  0.6666675060909810  0.0000000084382989   F   F   F
  0.4761900007622302  0.9166675060909810  0.0000000084382989   F   F   F
  0.6190471436193690  0.1666675060909810  0.0000000084382989   F   F   F
  0.6190471436193690  0.4166675060909810  0.0000000084382989   F   F   F
  0.6190471436193690  0.6666675060909810  0.0000000084382989   F   F   F
  0.6190471436193690  0.9166675060909810  0.0000000084382989   F   F   F
  0.7619042864765149  0.1666675060909810  0.0000000084382989   F   F   F
  0.7619042864765149  0.4166675060909810  0.0000000084382989   F   F   F
  0.7619042864765149  0.6666675060909810  0.0000000084382989   F   F   F
  0.7619042864765149  0.9166675060909810  0.0000000084382989   F   F   F
  0.9047614293336537  0.1666675060909810  0.0000000084382989   F   F   F
  0.9047614293336537  0.4166675060909810  0.0000000084382989   F   F   F
  0.9047614293336537  0.6666675060909810  0.0000000084382989   F   F   F
  0.9047614293336537  0.9166675060909810  0.0000000084382989   F   F   F
  0.1011890588653899  0.2150971444392419  0.2930033645289709   T   T   T
  0.1957873391884210  0.2961130060790719  0.2869359831367038   T   T   T
  0.2467769644656456  0.4653578963313448  0.2842059441416315   T   T   T
  0.1965976885090984  0.5469317541519274  0.2850095478651635   T   T   T
  0.1017247459360586  0.4650488200858336  0.2871511038500903   T   T   T
  0.0497658078217393  0.2958524808052673  0.2888708295648294   T   T   T
  0.0995843448267361  0.9920946791538993  0.3381912408380962   T   T   T
  0.3429182197944855  0.5529903295920779  0.2844282557868436   T   T   T
  0.4030333597046373  0.4910437035193932  0.2873362912960448   T   T   T
  0.4906741610018586  0.5825246331697513  0.3215077323219027   T   T   T
  0.2308383705964793  0.2360340849836284  0.3016771393226527   T   T   T
  0.2322522683669577  0.6696833200233222  0.2983864164519816   T   T   T
  0.0672199524569240  0.5248198059442137  0.3036594210864910   T   T   T
  0.9354221925979803  0.1276943461612283  0.3146787284258573   T   T   T
  0.1494329320034209  0.0590786411667036  0.3747992551143369   T   T   T
  0.0488615683087292  0.8796435111485639  0.3568972906761295   T   T   T
  0.1320851272597801  0.9728331099361814  0.2966134955588022   T   T   T
  0.3720164694926341  0.6771081051395140  0.2952138517549845   T   T   T
  0.3719659024609868  0.3677647291572954  0.3002074381722747   T   T   T
  0.4806765148214499  0.6030966422905735  0.3716512017592600   T   T   T
  0.5266808972940044  0.5177640294062270  0.3192314579661542   T   T   T
  0.6018133753844056  0.7895574273125073  0.3137259336611932   T   T   T
  0.9724286049133919  0.2383816248570387  0.3245611803267366   T   T   T
  0.0532998837258592  0.0708563172033294  0.3197527487352668   T   T   T
  0.5443615924864277  0.7352103677513979  0.2924565199069181   T   T   T
 
  0.00000000E+00  0.00000000E+00  0.00000000E+00
  0.00000000E+00  0.00000000E+00  0.00000000E+00
  0.00000000E+00  0.00000000E+00  0.00000000E+00
  0.00000000E+00  0.00000000E+00  0.00000000E+00
  0.00000000E+00  0.00000000E+00  0.00000000E+00
  0.00000000E+00  0.00000000E+00  0.00000000E+00
  0.00000000E+00  0.00000000E+00  0.00000000E+00
  0.00000000E+00  0.00000000E+00  0.00000000E+00
  0.00000000E+00  0.00000000E+00  0.00000000E+00
  0.00000000E+00  0.00000000E+00  0.00000000E+00
  0.00000000E+00  0.00000000E+00  0.00000000E+00
  0.00000000E+00  0.00000000E+00  0.00000000E+00
  0.00000000E+00  0.00000000E+00  0.00000000E+00
  0.00000000E+00  0.00000000E+00  0.00000000E+00
  0.00000000E+00  0.00000000E+00  0.00000000E+00
  0.00000000E+00  0.00000000E+00  0.00000000E+00
  0.00000000E+00  0.00000000E+00  0.00000000E+00
  0.00000000E+00  0.00000000E+00  0.00000000E+00
  0.00000000E+00  0.00000000E+00  0.00000000E+00
  0.00000000E+00  0.00000000E+00  0.00000000E+00
  0.00000000E+00  0.00000000E+00  0.00000000E+00
  0.00000000E+00  0.00000000E+00  0.00000000E+00
  0.00000000E+00  0.00000000E+00  0.00000000E+00
  0.00000000E+00  0.00000000E+00  0.00000000E+00
  0.00000000E+00  0.00000000E+00  0.00000000E+00
  0.00000000E+00  0.00000000E+00  0.00000000E+00
  0.00000000E+00  0.00000000E+00  0.00000000E+00
  0.00000000E+00  0.00000000E+00  0.00000000E+00
  0.00000000E+00  0.00000000E+00  0.00000000E+00
  0.00000000E+00  0.00000000E+00  0.00000000E+00
  0.00000000E+00  0.00000000E+00  0.00000000E+00
  0.00000000E+00  0.00000000E+00  0.00000000E+00
  0.00000000E+00  0.00000000E+00  0.00000000E+00
  0.00000000E+00  0.00000000E+00  0.00000000E+00
  0.00000000E+00  0.00000000E+00  0.00000000E+00
  0.00000000E+00  0.00000000E+00  0.00000000E+00
  0.00000000E+00  0.00000000E+00  0.00000000E+00
  0.00000000E+00  0.00000000E+00  0.00000000E+00
  0.00000000E+00  0.00000000E+00  0.00000000E+00
  0.00000000E+00  0.00000000E+00  0.00000000E+00
  0.00000000E+00  0.00000000E+00  0.00000000E+00
  0.00000000E+00  0.00000000E+00  0.00000000E+00
  0.00000000E+00  0.00000000E+00  0.00000000E+00
  0.00000000E+00  0.00000000E+00  0.00000000E+00
  0.00000000E+00  0.00000000E+00  0.00000000E+00
  0.00000000E+00  0.00000000E+00  0.00000000E+00
  0.00000000E+00  0.00000000E+00  0.00000000E+00
  0.00000000E+00  0.00000000E+00  0.00000000E+00
  0.00000000E+00  0.00000000E+00  0.00000000E+00
  0.00000000E+00  0.00000000E+00  0.00000000E+00
  0.00000000E+00  0.00000000E+00  0.00000000E+00
  0.00000000E+00  0.00000000E+00  0.00000000E+00
  0.00000000E+00  0.00000000E+00  0.00000000E+00
  0.00000000E+00  0.00000000E+00  0.00000000E+00
  0.00000000E+00  0.00000000E+00  0.00000000E+00
  0.00000000E+00  0.00000000E+00  0.00000000E+00
  0.00000000E+00  0.00000000E+00  0.00000000E+00
  0.00000000E+00  0.00000000E+00  0.00000000E+00
  0.00000000E+00  0.00000000E+00  0.00000000E+00
  0.00000000E+00  0.00000000E+00  0.00000000E+00
  0.00000000E+00  0.00000000E+00  0.00000000E+00
  0.00000000E+00  0.00000000E+00  0.00000000E+00
  0.00000000E+00  0.00000000E+00  0.00000000E+00
  0.00000000E+00  0.00000000E+00  0.00000000E+00
  0.00000000E+00  0.00000000E+00  0.00000000E+00
  0.00000000E+00  0.00000000E+00  0.00000000E+00
  0.00000000E+00  0.00000000E+00  0.00000000E+00
  0.00000000E+00  0.00000000E+00  0.00000000E+00
  0.00000000E+00  0.00000000E+00  0.00000000E+00
  0.00000000E+00  0.00000000E+00  0.00000000E+00
  0.00000000E+00  0.00000000E+00  0.00000000E+00
  0.00000000E+00  0.00000000E+00  0.00000000E+00
  0.00000000E+00  0.00000000E+00  0.00000000E+00
  0.00000000E+00  0.00000000E+00  0.00000000E+00
  0.00000000E+00  0.00000000E+00  0.00000000E+00
  0.00000000E+00  0.00000000E+00  0.00000000E+00
  0.00000000E+00  0.00000000E+00  0.00000000E+00
  0.00000000E+00  0.00000000E+00  0.00000000E+00
  0.00000000E+00  0.00000000E+00  0.00000000E+00
  0.00000000E+00  0.00000000E+00  0.00000000E+00
  0.00000000E+00  0.00000000E+00  0.00000000E+00
  0.00000000E+00  0.00000000E+00  0.00000000E+00
  0.00000000E+00  0.00000000E+00  0.00000000E+00
  0.00000000E+00  0.00000000E+00  0.00000000E+00
  0.00000000E+00  0.00000000E+00  0.00000000E+00
  0.00000000E+00  0.00000000E+00  0.00000000E+00
  0.00000000E+00  0.00000000E+00  0.00000000E+00
  0.00000000E+00  0.00000000E+00  0.00000000E+00
  0.00000000E+00  0.00000000E+00  0.00000000E+00
  0.00000000E+00  0.00000000E+00  0.00000000E+00
  0.00000000E+00  0.00000000E+00  0.00000000E+00
  0.00000000E+00  0.00000000E+00  0.00000000E+00
  0.00000000E+00  0.00000000E+00  0.00000000E+00
  0.00000000E+00  0.00000000E+00  0.00000000E+00
  0.00000000E+00  0.00000000E+00  0.00000000E+00
  0.00000000E+00  0.00000000E+00  0.00000000E+00
  0.00000000E+00  0.00000000E+00  0.00000000E+00
  0.00000000E+00  0.00000000E+00  0.00000000E+00
  0.00000000E+00  0.00000000E+00  0.00000000E+00
  0.00000000E+00  0.00000000E+00  0.00000000E+00
  0.00000000E+00  0.00000000E+00  0.00000000E+00
  0.00000000E+00  0.00000000E+00  0.00000000E+00
  0.00000000E+00  0.00000000E+00  0.00000000E+00
  0.00000000E+00  0.00000000E+00  0.00000000E+00
  0.00000000E+00  0.00000000E+00  0.00000000E+00
  0.00000000E+00  0.00000000E+00  0.00000000E+00
  0.00000000E+00  0.00000000E+00  0.00000000E+00
  0.00000000E+00  0.00000000E+00  0.00000000E+00
  0.00000000E+00  0.00000000E+00  0.00000000E+00
