C  H  O                                 
   1.00000000000000     
    20.0000000000000000    0.0000000000000000    0.0000000000000000
     0.0000000000000000   20.0000000000000000    0.0000000000000000
     0.0000000000000000    0.0000000000000000   20.0000000000000000
   C    H    O 
    10    14     3
Selective dynamics
Direct
  0.1348641745224442  0.1618878654071265  0.3350880776422648   T   T   T
  0.1939479955681902  0.1955964499400902  0.3497542857232810   T   T   T
  0.1994924908032140  0.2644132425504540  0.3364975288340473   T   T   T
  0.1451939770282039  0.2982778442896943  0.3086961276841145   T   T   T
  0.0856981194169962  0.2645769254801540  0.2936058766525577   T   T   T
  0.0801392145836961  0.1964570798692087  0.3065977866668976   T   T   T
  0.1760995695926843  0.0571326056135961  0.3754747124440905   T   T   T
  0.2644566487228760  0.2999175576408897  0.3506231831962882   T   T   T
  0.3205698130898851  0.2762533094650276  0.3038434723312877   T   T   T
  0.3864714561036996  0.3134995068911287  0.3145073972810554   T   T   T
  0.2360075285937403  0.1696000848482521  0.3726171980348217   T   T   T
  0.1490941247811834  0.3518522030983985  0.2989302950273321   T   T   T
  0.0429784730692574  0.2906645742523277  0.2719515658408699   T   T   T
  0.0281978840791111  0.1166576948179824  0.3051021603317370   T   T   T
  0.1893374660513040  0.0774407337889921  0.4250139344731290   T   T   T
  0.1573113130432867  0.0059010095717774  0.3806281572931675   T   T   T
  0.2208276668249281  0.0575711141195704  0.3431914424823835   T   T   T
  0.2567205714483902  0.3541857723903591  0.3424140879216740   T   T   T
  0.3274782436946665  0.2221180840190981  0.3115798739656416   T   T   T
  0.3243079544241229  0.3097231371031504  0.4281823123153972   T   T   T
  0.4073863370875697  0.3043490600475925  0.3646915224347854   T   T   T
  0.4244776400341059  0.2971156931145086  0.2783373011404462   T   T   T
  0.3797006068973098  0.3678376042113926  0.3084487105426957   T   T   T
  0.3032189980685573  0.2831296660299217  0.2520017526206336   T   T   T
  0.0218543452233175  0.1634206035289204  0.2922810261468812   T   T   T
  0.1230989876723630  0.0948024815569268  0.3459007236297136   T   T   T
  0.2814285533548965  0.2882291767134764  0.4198595264678027   T   T   T
 
  0.00000000E+00  0.00000000E+00  0.00000000E+00
  0.00000000E+00  0.00000000E+00  0.00000000E+00
  0.00000000E+00  0.00000000E+00  0.00000000E+00
  0.00000000E+00  0.00000000E+00  0.00000000E+00
  0.00000000E+00  0.00000000E+00  0.00000000E+00
  0.00000000E+00  0.00000000E+00  0.00000000E+00
  0.00000000E+00  0.00000000E+00  0.00000000E+00
  0.00000000E+00  0.00000000E+00  0.00000000E+00
  0.00000000E+00  0.00000000E+00  0.00000000E+00
  0.00000000E+00  0.00000000E+00  0.00000000E+00
  0.00000000E+00  0.00000000E+00  0.00000000E+00
  0.00000000E+00  0.00000000E+00  0.00000000E+00
  0.00000000E+00  0.00000000E+00  0.00000000E+00
  0.00000000E+00  0.00000000E+00  0.00000000E+00
  0.00000000E+00  0.00000000E+00  0.00000000E+00
  0.00000000E+00  0.00000000E+00  0.00000000E+00
  0.00000000E+00  0.00000000E+00  0.00000000E+00
  0.00000000E+00  0.00000000E+00  0.00000000E+00
  0.00000000E+00  0.00000000E+00  0.00000000E+00
  0.00000000E+00  0.00000000E+00  0.00000000E+00
  0.00000000E+00  0.00000000E+00  0.00000000E+00
  0.00000000E+00  0.00000000E+00  0.00000000E+00
  0.00000000E+00  0.00000000E+00  0.00000000E+00
  0.00000000E+00  0.00000000E+00  0.00000000E+00
  0.00000000E+00  0.00000000E+00  0.00000000E+00
  0.00000000E+00  0.00000000E+00  0.00000000E+00
  0.00000000E+00  0.00000000E+00  0.00000000E+00
