Ru  H  C  O                             
   1.00000000000000     
    18.7899500611000008    0.0000000000000000    0.0000000000000000
     9.3949750305999995   16.2725740887999990    0.0000000000000000
     0.0000000000000000    0.0000000000000000   20.0000000000000000
   Ru   H    C    O 
   192    22    22     8
Selective dynamics
Direct
  0.0000000000019114  0.0833333333312822  0.0000000000000000   F   F   F
  0.1666666666657761  0.0000000000000000  0.0000000000000000   F   F   F
  0.0833333333309767  0.1666666666687178  0.0000000000000000   F   F   F
  0.2500000000032401  0.0833333333312822  0.0000000000000000   F   F   F
  0.4166666666671119  0.0000000000000000  0.0000000000000000   F   F   F
  0.3333333333323125  0.1666666666687178  0.0000000000000000   F   F   F
  0.9999999999992468  0.3333333333312822  0.0000000000000000   F   F   F
  0.1666666666684407  0.2500000000000000  0.0000000000000000   F   F   F
  0.0833333333336412  0.4166666666687178  0.0000000000000000   F   F   F
  0.2500000000005826  0.3333333333312822  0.0000000000000000   F   F   F
  0.4166666666697694  0.2500000000000000  0.0000000000000000   F   F   F
  0.3333333333349700  0.4166666666687178  0.0000000000000000   F   F   F
  0.0000000000000000  0.0000000000000000  0.1071978058550016   F   F   F
  0.0833333333321420  0.0833333333312822  0.1071978058550016   F   F   F
  0.1666666666665293  0.1666666666687178  0.1071978058550016   F   F   F
  0.2500000000013287  0.0000000000000000  0.1071978058550016   F   F   F
  0.3333333333334707  0.0833333333312822  0.1071978058550016   F   F   F
  0.4166666666678580  0.1666666666687178  0.1071978058550016   F   F   F
  0.9999999999973355  0.2500000000000000  0.1071978058550016   F   F   F
  0.0833333333347994  0.3333333333312822  0.1071978058550016   F   F   F
  0.1666666666638719  0.4166666666687178  0.1071978058550016   F   F   F
  0.2499999999986713  0.2500000000000000  0.1071978058550016   F   F   F
  0.3333333333361281  0.3333333333312822  0.1071978058550016   F   F   F
  0.4166666666652006  0.4166666666687178  0.1071978058550016   F   F   F
 -0.0000189628000133  0.0832832209576689  0.2134202703811764   T   T   T
  0.1664455140172836  0.0001479965140403  0.2134106379204558   T   T   T
  0.0831796138455730  0.1666833101118163  0.2136509618180406   T   T   T
  0.2496959931575056  0.0832358592510384  0.2133595814140709   T   T   T
  0.4162603068556237 -0.0001209197138712  0.2138605687756477   T   T   T
  0.3329309823423091  0.1667593789392702  0.2140484108344144   T   T   T
  0.0000378154863911  0.3331855955295264  0.2137328302595799   T   T   T
  0.1667700021544661  0.2494033449140392  0.2138145399410162   T   T   T
  0.0831166688584584  0.4163975909598015  0.2139748448958001   T   T   T
  0.2485493319517861  0.3336305994234869  0.2135729831344699   T   T   T
  0.4172266051943729  0.2493009621363096  0.2131321100386807   T   T   T
  0.3332879195639232  0.4170656078002324  0.2128270788814036   T   T   T
 -0.0001055519410076  0.0003594035580891  0.3164989467117875   T   T   T
  0.0830324396825271  0.0830804007087455  0.3165707617641256   T   T   T
  0.1654827086843950  0.1654281169919351  0.3163740250876598   T   T   T
  0.2495207355181395 -0.0001166461597255  0.3167183414126568   T   T   T
  0.3338129333098653  0.0823773076610020  0.3162838572335973   T   T   T
  0.4191655325652011  0.1624298115509662  0.3160683719175393   T   T   T
  0.9998936880582592  0.2496185137750254  0.3165194145714564   T   T   T
  0.0803060268604348  0.3324041672257028  0.3158459851536279   T   T   T
  0.1612658742994347  0.4197736973040851  0.3188743519125181   T   T   T
  0.2490162261654079  0.2477299358943928  0.3182825567974890   T   T   T
  0.3322806765836743  0.3319590467563505  0.3171147883336299   T   T   T
  0.4188470974399491  0.4187964533100967  0.3180756624974692   T   T   T
  0.0000000000019114  0.5833333333312822  0.0000000000000000   F   F   F
  0.1666666666657761  0.5000000000000000  0.0000000000000000   F   F   F
  0.0833333333309767  0.6666666666687178  0.0000000000000000   F   F   F
  0.2500000000032401  0.5833333333312822  0.0000000000000000   F   F   F
  0.4166666666671119  0.5000000000000000  0.0000000000000000   F   F   F
  0.3333333333323054  0.6666666666687178  0.0000000000000000   F   F   F
  0.9999999999992468  0.8333333333312822  0.0000000000000000   F   F   F
  0.1666666666684407  0.7500000000000000  0.0000000000000000   F   F   F
  0.0833333333336412  0.9166666666687178  0.0000000000000000   F   F   F
  0.2500000000005826  0.8333333333312822  0.0000000000000000   F   F   F
  0.4166666666644474  0.7500000000000000  0.0000000000000000   F   F   F
  0.3333333333296480  0.9166666666687178  0.0000000000000000   F   F   F
  0.0000000000000000  0.5000000000000000  0.1071978058550016   F   F   F
  0.0833333333321420  0.5833333333312822  0.1071978058550016   F   F   F
  0.1666666666665293  0.6666666666687178  0.1071978058550016   F   F   F
  0.2500000000013287  0.5000000000000000  0.1071978058550016   F   F   F
  0.3333333333334707  0.5833333333312822  0.1071978058550016   F   F   F
  0.4166666666678580  0.6666666666687178  0.1071978058550016   F   F   F
  0.9999999999973355  0.7500000000000000  0.1071978058550016   F   F   F
  0.0833333333347994  0.8333333333312822  0.1071978058550016   F   F   F
  0.1666666666638719  0.9166666666687178  0.1071978058550016   F   F   F
  0.2499999999986713  0.7500000000000000  0.1071978058550016   F   F   F
  0.3333333333361281  0.8333333333312822  0.1071978058550016   F   F   F
  0.4166666666652006  0.9166666666687178  0.1071978058550016   F   F   F
 -0.0000576042277073  0.5833925197801660  0.2139156911221283   T   T   T
  0.1673767234333671  0.4998965098598704  0.2147229714509845   T   T   T
  0.0833787646171691  0.6668425532671960  0.2131811417696328   T   T   T
  0.2497494179720356  0.5837701121709109  0.2123906341041487   T   T   T
  0.4159638462997741  0.5008364455469169  0.2128463106132803   T   T   T
  0.3329835267077060  0.6673543669456621  0.2136451495989575   T   T   T
 -0.0000188288979544  0.8336364714552664  0.2135116822196623   T   T   T
  0.1661238218435233  0.7505100608397354  0.2135205530530368   T   T   T
  0.0831404186637989  0.9166855723944903  0.2133230399324970   T   T   T
  0.2494138533302899  0.8339282622920999  0.2136501261453298   T   T   T
  0.4160219990781487  0.7504607122572348  0.2136604221441289   T   T   T
  0.3330114680988569  0.9167892351577304  0.2134611118167286   T   T   T
 -0.0017622534328341  0.4989033219597009  0.3153023762221282   T   T   T
  0.0839788010411670  0.5857519177059174  0.3157399772858269   T   T   T
  0.1657216332256039  0.6676896949047745  0.3161310034555814   T   T   T
  0.2504514380061932  0.4995709670625436  0.3188532559845579   T   T   T
  0.3323736872235398  0.5865482425778583  0.3155543294021045   T   T   T
  0.4132674697885134  0.6667640772531187  0.3153143336770146   T   T   T
  0.0005157034787563  0.7517718222017467  0.3160064206469764   T   T   T
  0.0832824831763601  0.8335888456223468  0.3165363940225908   T   T   T
  0.1653937321695006  0.9177360890864503  0.3166029439483741   T   T   T
  0.2490359795258459  0.7513346144715249  0.3162329802091228   T   T   T
  0.3300532341771943  0.8348476525832654  0.3160459066324044   T   T   T
  0.4149435304438475  0.9190305759548043  0.3163326614202849   T   T   T
  0.5000000000045688  0.0833333333312822  0.0000000000000000   F   F   F
  0.6666666666684407  0.0000000000000000  0.0000000000000000   F   F   F
  0.5833333333336412  0.1666666666687178  0.0000000000000000   F   F   F
  0.7500000000005826  0.0833333333312822  0.0000000000000000   F   F   F
  0.9166666666697694  0.0000000000000000  0.0000000000000000   F   F   F
  0.8333333333349700  0.1666666666687178  0.0000000000000000   F   F   F
  0.5000000000019114  0.3333333333312822  0.0000000000000000   F   F   F
  0.6666666666657761  0.2500000000000000  0.0000000000000000   F   F   F
  0.5833333333309767  0.4166666666687178  0.0000000000000000   F   F   F
  0.7500000000032401  0.3333333333312822  0.0000000000000000   F   F   F
  0.9166666666671119  0.2500000000000000  0.0000000000000000   F   F   F
  0.8333333333323054  0.4166666666687178  0.0000000000000000   F   F   F
  0.5000000000026574  0.0000000000000000  0.1071978058550016   F   F   F
  0.5833333333347994  0.0833333333312822  0.1071978058550016   F   F   F
  0.6666666666691938  0.1666666666687178  0.1071978058550016   F   F   F
  0.7500000000039933  0.0000000000000000  0.1071978058550016   F   F   F
  0.8333333333361281  0.0833333333312822  0.1071978058550016   F   F   F
  0.9166666666652006  0.1666666666687178  0.1071978058550016   F   F   F
  0.5000000000000000  0.2500000000000000  0.1071978058550016   F   F   F
  0.5833333333374640  0.3333333333312822  0.1071978058550016   F   F   F
  0.6666666666665293  0.4166666666687178  0.1071978058550016   F   F   F
  0.7500000000013287  0.2500000000000000  0.1071978058550016   F   F   F
  0.8333333333334707  0.3333333333312822  0.1071978058550016   F   F   F
  0.9166666666678580  0.4166666666687178  0.1071978058550016   F   F   F
  0.4997215772347700  0.0836299637006829  0.2137811391124612   T   T   T
  0.6663193645211448  0.0004793434525695  0.2140956035997015   T   T   T
  0.5831345817816037  0.1672557118077670  0.2133956155748287   T   T   T
  0.7498654886622416  0.0833643062075486  0.2136804823524053   T   T   T
  0.9163608591945760  0.0002955199095940  0.2131155126849231   T   T   T
  0.8337102046830762  0.1664383618958841  0.2134569231741823   T   T   T
  0.5006379729735098  0.3325810529644408  0.2137732237880028   T   T   T
  0.6668456027819085  0.2497710685386199  0.2142442392578842   T   T   T
  0.5835023206850382  0.4160105476477141  0.2131208908134573   T   T   T
  0.7501370255202222  0.3329862816782692  0.2131312906714508   T   T   T
  0.9167966498130348  0.2497560208468331  0.2132912419573432   T   T   T
  0.8335850164192343  0.4161761568374107  0.2133482876912255   T   T   T
  0.4995012181510354 -0.0000822864788185  0.3162130048768986   T   T   T
  0.5833553763397742  0.0838593917929342  0.3163506565020296   T   T   T
  0.6681853652194164  0.1651947465382000  0.3162182599562812   T   T   T
  0.7503448521146026 -0.0001352439323399  0.3166724864419968   T   T   T
  0.8333742863853121  0.0835524719627065  0.3164844786884466   T   T   T
  0.9169633539277154  0.1661796426759507  0.3164431937907953   T   T   T
  0.4981238563593602  0.2511473447361416  0.3201134629683520   T   T   T
  0.5869941753375157  0.3319402911488367  0.3185837781405861   T   T   T
  0.6685242733821428  0.4158302918252791  0.3152053083842999   T   T   T
  0.7527734524002166  0.2484541882521292  0.3160969130876697   T   T   T
  0.8335126894924254  0.3324788591350911  0.3163468082725611   T   T   T
  0.9166890372972697  0.4167438947713968  0.3160054389323360   T   T   T
  0.4999999999992468  0.5833333333312822  0.0000000000000000   F   F   F
  0.6666666666684407  0.5000000000000000  0.0000000000000000   F   F   F
  0.5833333333336412  0.6666666666687178  0.0000000000000000   F   F   F
  0.7500000000005826  0.5833333333312822  0.0000000000000000   F   F   F
  0.9166666666697694  0.5000000000000000  0.0000000000000000   F   F   F
  0.8333333333349700  0.6666666666687178  0.0000000000000000   F   F   F
  0.5000000000019114  0.8333333333312822  0.0000000000000000   F   F   F
  0.6666666666657761  0.7500000000000000  0.0000000000000000   F   F   F
  0.5833333333309767  0.9166666666687178  0.0000000000000000   F   F   F
  0.7500000000032401  0.8333333333312822  0.0000000000000000   F   F   F
  0.9166666666671119  0.7500000000000000  0.0000000000000000   F   F   F
  0.8333333333323054  0.9166666666687178  0.0000000000000000   F   F   F
  0.5000000000026574  0.5000000000000000  0.1071978058550016   F   F   F
  0.5833333333347994  0.5833333333312822  0.1071978058550016   F   F   F
  0.6666666666638719  0.6666666666687178  0.1071978058550016   F   F   F
  0.7499999999986713  0.5000000000000000  0.1071978058550016   F   F   F
  0.8333333333361281  0.5833333333312822  0.1071978058550016   F   F   F
  0.9166666666652006  0.6666666666687178  0.1071978058550016   F   F   F
  0.5000000000000000  0.7500000000000000  0.1071978058550016   F   F   F
  0.5833333333321420  0.8333333333312822  0.1071978058550016   F   F   F
  0.6666666666665293  0.9166666666687178  0.1071978058550016   F   F   F
  0.7500000000013287  0.7500000000000000  0.1071978058550016   F   F   F
  0.8333333333334707  0.8333333333312822  0.1071978058550016   F   F   F
  0.9166666666678580  0.9166666666687178  0.1071978058550016   F   F   F
  0.5002020578474321  0.5835004917422033  0.2132839626878583   T   T   T
  0.6668252449435590  0.4995253232517186  0.2136906991009211   T   T   T
  0.5818844982902811  0.6670576774178937  0.2131600183578101   T   T   T
  0.7503759580855166  0.5827654911883962  0.2126124427428107   T   T   T
  0.9160836835587346  0.5006751254468628  0.2131352735777883   T   T   T
  0.8336396582553915  0.6665702922252048  0.2136691859422592   T   T   T
  0.5006634215810987  0.8331069515544570  0.2149952397217283   T   T   T
  0.6664397337795331  0.7508831755162005  0.2131326640261430   T   T   T
  0.5834609672093276  0.9164989337303759  0.2127351334776352   T   T   T
  0.7494328334292715  0.8347107106978432  0.2131313325309276   T   T   T
  0.9164791618086428  0.7499810250622294  0.2137145816445608   T   T   T
  0.8336335940855470  0.9169950853595620  0.2134116490805852   T   T   T
  0.4986143670210527  0.5031427721999960  0.3140693124030008   T   T   T
  0.5833567192447412  0.5801556299459203  0.3170212664166305   T   T   T
  0.6648435228130476  0.6652263750415037  0.3165231952604178   T   T   T
  0.7525624514869621  0.4957164997047604  0.3157371771685836   T   T   T
  0.8309547284589861  0.5843481817080890  0.3191508637121371   T   T   T
  0.9195910048706791  0.6658718607795990  0.3181953517672393   T   T   T
  0.4945905724511700  0.7523456806753036  0.3189265437617975   T   T   T
  0.5839541671108005  0.8315849307387915  0.3200009574728082   T   T   T
  0.6665014206340156  0.9196583060978247  0.3161173472117528   T   T   T
  0.7515698223901399  0.7527088504000464  0.3190039174871913   T   T   T
  0.8335824358185714  0.8370721699861107  0.3153945391745787   T   T   T
  0.9166893114569745  0.9172115199083689  0.3162310596532580   T   T   T
  0.9432343208530051  0.7508769970476599  0.5276221927437413   T   T   T
  0.8703975080071750  0.8602850429716695  0.5296669205859881   T   T   T
  0.9239035134815238  0.8118625515595770  0.4530570006869369   T   T   T
  0.4642782796205351  0.6168621659808674  0.4457206517613335   T   T   T
  0.5174152026429154  0.6166170712910226  0.5206164296328721   T   T   T
  0.5850124279470118  0.4699257229021752  0.5262284940986098   T   T   T
  0.6069269698859965  0.4622962750958801  0.4384267494409867   T   T   T
  0.6832791552495985  0.8478310496525339  0.4427745342486000   T   T   T
  0.5648577372606769  0.8236928956607763  0.4518062334276534   T   T   T
  0.8442498648027105  0.5885729914897531  0.4504323038827472   T   T   T
  0.7269658074465808  0.5645701633868686  0.4376480455543536   T   T   T
  0.3488189628048133  0.5226830274636374  0.4396026455241484   T   T   T
  0.5090950890594355  0.2625523077488604  0.4506411286232284   T   T   T
  0.3899013358415729  0.2399278492606746  0.4401875301161630   T   T   T
  0.2303061525054905  0.4991317544808969  0.4509093518426604   T   T   T
  0.1180882471833626  0.3081978442035391  0.4418886863499862   T   T   T
  0.1649980694383759  0.3158967875843011  0.5174062601404509   T   T   T
  0.2555286002580001  0.1629721221882447  0.5197051830053331   T   T   T
  0.2162497837390132  0.1549144976160768  0.4411702089635584   T   T   T
  0.1099861583778135  0.2247612862420640  0.5688296659033836   T   T   T
  0.1460008117128256  0.1245000006419853  0.5355963480427206   T   T   T
  0.0750403987057492  0.2122098245732330  0.4891117801739374   T   T   T
  0.8968577340103977  0.8041654348550645  0.4995283808523899   T   T   T
  0.8441589681295746  0.7287286286820081  0.4439534358380304   T   T   T
  0.7735013516989060  0.7198416430131558  0.4253390887022015   T   T   T
  0.6912145842760125  0.7890281779636743  0.4259397495361628   T   T   T
  0.7904381605254491  0.6338347957092310  0.4223955478374191   T   T   T
  0.7185050097249418  0.6242161585306288  0.4225214130606546   T   T   T
  0.6361961571807546  0.6937466835872020  0.4225959407048249   T   T   T
  0.6190440767097664  0.7799100496600831  0.4234131669210480   T   T   T
  0.5647146721323701  0.6826187322621291  0.4250502327765245   T   T   T
  0.5241003772350123  0.5873481782902169  0.4716363983411684   T   T   T
  0.5588674362325069  0.4944131933261735  0.4766990112370054   T   T   T
  0.5100829763248206  0.4038725568024829  0.4389549018234786   T   T   T
  0.4390062862596605  0.3936827989075578  0.4253114590528286   T   T   T
  0.3567239581978924  0.4633315128944326  0.4242772245520124   T   T   T
  0.4547240538734652  0.3079756149547378  0.4232379898724026   T   T   T
  0.3823223156804327  0.2989042607093856  0.4242438333618294   T   T   T
  0.3006792686777692  0.3689454244213253  0.4223852451749461   T   T   T
  0.2844250163096937  0.4546039785843579  0.4228598134518016   T   T   T
  0.2276391390156209  0.3602052556821387  0.4229453051512895   T   T   T
  0.1750727465508269  0.2786663403425748  0.4721204195726039   T   T   T
  0.1999551047951597  0.1908415121102368  0.4882818470234004   T   T   T
  0.1286902798012945  0.1879495174557802  0.5225978615634871   T   T   T
  0.8277384007763431  0.7926716798407870  0.4832821294948152   T   T   T
  0.5831748076542408  0.5998097515088572  0.4327228042773110   T   T   T
  0.4918289889072596  0.4780043656415375  0.4651948997706561   T   T   T
  0.9171825669259749  0.6764607139349260  0.4280840427217117   T   T   T
  0.4911729379828511  0.7408272926504258  0.4305191485664124   T   T   T
  0.5834111639733216  0.3470949185071345  0.4307613062322417   T   T   T
  0.1548832453928866  0.4216177121984024  0.4281473520433952   T   T   T
  0.2412214583339309  0.2800258483220700  0.4336456217771740   T   T   T
 
  0.00000000E+00  0.00000000E+00  0.00000000E+00
  0.00000000E+00  0.00000000E+00  0.00000000E+00
  0.00000000E+00  0.00000000E+00  0.00000000E+00
  0.00000000E+00  0.00000000E+00  0.00000000E+00
  0.00000000E+00  0.00000000E+00  0.00000000E+00
  0.00000000E+00  0.00000000E+00  0.00000000E+00
  0.00000000E+00  0.00000000E+00  0.00000000E+00
  0.00000000E+00  0.00000000E+00  0.00000000E+00
  0.00000000E+00  0.00000000E+00  0.00000000E+00
  0.00000000E+00  0.00000000E+00  0.00000000E+00
  0.00000000E+00  0.00000000E+00  0.00000000E+00
  0.00000000E+00  0.00000000E+00  0.00000000E+00
  0.00000000E+00  0.00000000E+00  0.00000000E+00
  0.00000000E+00  0.00000000E+00  0.00000000E+00
  0.00000000E+00  0.00000000E+00  0.00000000E+00
  0.00000000E+00  0.00000000E+00  0.00000000E+00
  0.00000000E+00  0.00000000E+00  0.00000000E+00
  0.00000000E+00  0.00000000E+00  0.00000000E+00
  0.00000000E+00  0.00000000E+00  0.00000000E+00
  0.00000000E+00  0.00000000E+00  0.00000000E+00
  0.00000000E+00  0.00000000E+00  0.00000000E+00
  0.00000000E+00  0.00000000E+00  0.00000000E+00
  0.00000000E+00  0.00000000E+00  0.00000000E+00
  0.00000000E+00  0.00000000E+00  0.00000000E+00
  0.00000000E+00  0.00000000E+00  0.00000000E+00
  0.00000000E+00  0.00000000E+00  0.00000000E+00
  0.00000000E+00  0.00000000E+00  0.00000000E+00
  0.00000000E+00  0.00000000E+00  0.00000000E+00
  0.00000000E+00  0.00000000E+00  0.00000000E+00
  0.00000000E+00  0.00000000E+00  0.00000000E+00
  0.00000000E+00  0.00000000E+00  0.00000000E+00
  0.00000000E+00  0.00000000E+00  0.00000000E+00
  0.00000000E+00  0.00000000E+00  0.00000000E+00
  0.00000000E+00  0.00000000E+00  0.00000000E+00
  0.00000000E+00  0.00000000E+00  0.00000000E+00
  0.00000000E+00  0.00000000E+00  0.00000000E+00
  0.00000000E+00  0.00000000E+00  0.00000000E+00
  0.00000000E+00  0.00000000E+00  0.00000000E+00
  0.00000000E+00  0.00000000E+00  0.00000000E+00
  0.00000000E+00  0.00000000E+00  0.00000000E+00
  0.00000000E+00  0.00000000E+00  0.00000000E+00
  0.00000000E+00  0.00000000E+00  0.00000000E+00
  0.00000000E+00  0.00000000E+00  0.00000000E+00
  0.00000000E+00  0.00000000E+00  0.00000000E+00
  0.00000000E+00  0.00000000E+00  0.00000000E+00
  0.00000000E+00  0.00000000E+00  0.00000000E+00
  0.00000000E+00  0.00000000E+00  0.00000000E+00
  0.00000000E+00  0.00000000E+00  0.00000000E+00
  0.00000000E+00  0.00000000E+00  0.00000000E+00
  0.00000000E+00  0.00000000E+00  0.00000000E+00
  0.00000000E+00  0.00000000E+00  0.00000000E+00
  0.00000000E+00  0.00000000E+00  0.00000000E+00
  0.00000000E+00  0.00000000E+00  0.00000000E+00
  0.00000000E+00  0.00000000E+00  0.00000000E+00
  0.00000000E+00  0.00000000E+00  0.00000000E+00
  0.00000000E+00  0.00000000E+00  0.00000000E+00
  0.00000000E+00  0.00000000E+00  0.00000000E+00
  0.00000000E+00  0.00000000E+00  0.00000000E+00
  0.00000000E+00  0.00000000E+00  0.00000000E+00
  0.00000000E+00  0.00000000E+00  0.00000000E+00
  0.00000000E+00  0.00000000E+00  0.00000000E+00
  0.00000000E+00  0.00000000E+00  0.00000000E+00
  0.00000000E+00  0.00000000E+00  0.00000000E+00
  0.00000000E+00  0.00000000E+00  0.00000000E+00
  0.00000000E+00  0.00000000E+00  0.00000000E+00
  0.00000000E+00  0.00000000E+00  0.00000000E+00
  0.00000000E+00  0.00000000E+00  0.00000000E+00
  0.00000000E+00  0.00000000E+00  0.00000000E+00
  0.00000000E+00  0.00000000E+00  0.00000000E+00
  0.00000000E+00  0.00000000E+00  0.00000000E+00
  0.00000000E+00  0.00000000E+00  0.00000000E+00
  0.00000000E+00  0.00000000E+00  0.00000000E+00
  0.00000000E+00  0.00000000E+00  0.00000000E+00
  0.00000000E+00  0.00000000E+00  0.00000000E+00
  0.00000000E+00  0.00000000E+00  0.00000000E+00
  0.00000000E+00  0.00000000E+00  0.00000000E+00
  0.00000000E+00  0.00000000E+00  0.00000000E+00
  0.00000000E+00  0.00000000E+00  0.00000000E+00
  0.00000000E+00  0.00000000E+00  0.00000000E+00
  0.00000000E+00  0.00000000E+00  0.00000000E+00
  0.00000000E+00  0.00000000E+00  0.00000000E+00
  0.00000000E+00  0.00000000E+00  0.00000000E+00
  0.00000000E+00  0.00000000E+00  0.00000000E+00
  0.00000000E+00  0.00000000E+00  0.00000000E+00
  0.00000000E+00  0.00000000E+00  0.00000000E+00
  0.00000000E+00  0.00000000E+00  0.00000000E+00
  0.00000000E+00  0.00000000E+00  0.00000000E+00
  0.00000000E+00  0.00000000E+00  0.00000000E+00
  0.00000000E+00  0.00000000E+00  0.00000000E+00
  0.00000000E+00  0.00000000E+00  0.00000000E+00
  0.00000000E+00  0.00000000E+00  0.00000000E+00
  0.00000000E+00  0.00000000E+00  0.00000000E+00
  0.00000000E+00  0.00000000E+00  0.00000000E+00
  0.00000000E+00  0.00000000E+00  0.00000000E+00
  0.00000000E+00  0.00000000E+00  0.00000000E+00
  0.00000000E+00  0.00000000E+00  0.00000000E+00
  0.00000000E+00  0.00000000E+00  0.00000000E+00
  0.00000000E+00  0.00000000E+00  0.00000000E+00
  0.00000000E+00  0.00000000E+00  0.00000000E+00
  0.00000000E+00  0.00000000E+00  0.00000000E+00
  0.00000000E+00  0.00000000E+00  0.00000000E+00
  0.00000000E+00  0.00000000E+00  0.00000000E+00
  0.00000000E+00  0.00000000E+00  0.00000000E+00
  0.00000000E+00  0.00000000E+00  0.00000000E+00
  0.00000000E+00  0.00000000E+00  0.00000000E+00
  0.00000000E+00  0.00000000E+00  0.00000000E+00
  0.00000000E+00  0.00000000E+00  0.00000000E+00
  0.00000000E+00  0.00000000E+00  0.00000000E+00
  0.00000000E+00  0.00000000E+00  0.00000000E+00
  0.00000000E+00  0.00000000E+00  0.00000000E+00
  0.00000000E+00  0.00000000E+00  0.00000000E+00
  0.00000000E+00  0.00000000E+00  0.00000000E+00
  0.00000000E+00  0.00000000E+00  0.00000000E+00
  0.00000000E+00  0.00000000E+00  0.00000000E+00
  0.00000000E+00  0.00000000E+00  0.00000000E+00
  0.00000000E+00  0.00000000E+00  0.00000000E+00
  0.00000000E+00  0.00000000E+00  0.00000000E+00
  0.00000000E+00  0.00000000E+00  0.00000000E+00
  0.00000000E+00  0.00000000E+00  0.00000000E+00
  0.00000000E+00  0.00000000E+00  0.00000000E+00
  0.00000000E+00  0.00000000E+00  0.00000000E+00
  0.00000000E+00  0.00000000E+00  0.00000000E+00
  0.00000000E+00  0.00000000E+00  0.00000000E+00
  0.00000000E+00  0.00000000E+00  0.00000000E+00
  0.00000000E+00  0.00000000E+00  0.00000000E+00
  0.00000000E+00  0.00000000E+00  0.00000000E+00
  0.00000000E+00  0.00000000E+00  0.00000000E+00
  0.00000000E+00  0.00000000E+00  0.00000000E+00
  0.00000000E+00  0.00000000E+00  0.00000000E+00
  0.00000000E+00  0.00000000E+00  0.00000000E+00
  0.00000000E+00  0.00000000E+00  0.00000000E+00
  0.00000000E+00  0.00000000E+00  0.00000000E+00
  0.00000000E+00  0.00000000E+00  0.00000000E+00
  0.00000000E+00  0.00000000E+00  0.00000000E+00
  0.00000000E+00  0.00000000E+00  0.00000000E+00
  0.00000000E+00  0.00000000E+00  0.00000000E+00
  0.00000000E+00  0.00000000E+00  0.00000000E+00
  0.00000000E+00  0.00000000E+00  0.00000000E+00
  0.00000000E+00  0.00000000E+00  0.00000000E+00
  0.00000000E+00  0.00000000E+00  0.00000000E+00
  0.00000000E+00  0.00000000E+00  0.00000000E+00
  0.00000000E+00  0.00000000E+00  0.00000000E+00
  0.00000000E+00  0.00000000E+00  0.00000000E+00
  0.00000000E+00  0.00000000E+00  0.00000000E+00
  0.00000000E+00  0.00000000E+00  0.00000000E+00
  0.00000000E+00  0.00000000E+00  0.00000000E+00
  0.00000000E+00  0.00000000E+00  0.00000000E+00
  0.00000000E+00  0.00000000E+00  0.00000000E+00
  0.00000000E+00  0.00000000E+00  0.00000000E+00
  0.00000000E+00  0.00000000E+00  0.00000000E+00
  0.00000000E+00  0.00000000E+00  0.00000000E+00
  0.00000000E+00  0.00000000E+00  0.00000000E+00
  0.00000000E+00  0.00000000E+00  0.00000000E+00
  0.00000000E+00  0.00000000E+00  0.00000000E+00
  0.00000000E+00  0.00000000E+00  0.00000000E+00
  0.00000000E+00  0.00000000E+00  0.00000000E+00
  0.00000000E+00  0.00000000E+00  0.00000000E+00
  0.00000000E+00  0.00000000E+00  0.00000000E+00
  0.00000000E+00  0.00000000E+00  0.00000000E+00
  0.00000000E+00  0.00000000E+00  0.00000000E+00
  0.00000000E+00  0.00000000E+00  0.00000000E+00
  0.00000000E+00  0.00000000E+00  0.00000000E+00
  0.00000000E+00  0.00000000E+00  0.00000000E+00
  0.00000000E+00  0.00000000E+00  0.00000000E+00
  0.00000000E+00  0.00000000E+00  0.00000000E+00
  0.00000000E+00  0.00000000E+00  0.00000000E+00
  0.00000000E+00  0.00000000E+00  0.00000000E+00
  0.00000000E+00  0.00000000E+00  0.00000000E+00
  0.00000000E+00  0.00000000E+00  0.00000000E+00
  0.00000000E+00  0.00000000E+00  0.00000000E+00
  0.00000000E+00  0.00000000E+00  0.00000000E+00
  0.00000000E+00  0.00000000E+00  0.00000000E+00
  0.00000000E+00  0.00000000E+00  0.00000000E+00
  0.00000000E+00  0.00000000E+00  0.00000000E+00
  0.00000000E+00  0.00000000E+00  0.00000000E+00
  0.00000000E+00  0.00000000E+00  0.00000000E+00
  0.00000000E+00  0.00000000E+00  0.00000000E+00
  0.00000000E+00  0.00000000E+00  0.00000000E+00
  0.00000000E+00  0.00000000E+00  0.00000000E+00
  0.00000000E+00  0.00000000E+00  0.00000000E+00
  0.00000000E+00  0.00000000E+00  0.00000000E+00
  0.00000000E+00  0.00000000E+00  0.00000000E+00
  0.00000000E+00  0.00000000E+00  0.00000000E+00
  0.00000000E+00  0.00000000E+00  0.00000000E+00
  0.00000000E+00  0.00000000E+00  0.00000000E+00
  0.00000000E+00  0.00000000E+00  0.00000000E+00
  0.00000000E+00  0.00000000E+00  0.00000000E+00
  0.00000000E+00  0.00000000E+00  0.00000000E+00
  0.00000000E+00  0.00000000E+00  0.00000000E+00
  0.00000000E+00  0.00000000E+00  0.00000000E+00
  0.00000000E+00  0.00000000E+00  0.00000000E+00
  0.00000000E+00  0.00000000E+00  0.00000000E+00
  0.00000000E+00  0.00000000E+00  0.00000000E+00
  0.00000000E+00  0.00000000E+00  0.00000000E+00
  0.00000000E+00  0.00000000E+00  0.00000000E+00
  0.00000000E+00  0.00000000E+00  0.00000000E+00
  0.00000000E+00  0.00000000E+00  0.00000000E+00
  0.00000000E+00  0.00000000E+00  0.00000000E+00
  0.00000000E+00  0.00000000E+00  0.00000000E+00
  0.00000000E+00  0.00000000E+00  0.00000000E+00
  0.00000000E+00  0.00000000E+00  0.00000000E+00
  0.00000000E+00  0.00000000E+00  0.00000000E+00
  0.00000000E+00  0.00000000E+00  0.00000000E+00
  0.00000000E+00  0.00000000E+00  0.00000000E+00
  0.00000000E+00  0.00000000E+00  0.00000000E+00
  0.00000000E+00  0.00000000E+00  0.00000000E+00
  0.00000000E+00  0.00000000E+00  0.00000000E+00
  0.00000000E+00  0.00000000E+00  0.00000000E+00
  0.00000000E+00  0.00000000E+00  0.00000000E+00
  0.00000000E+00  0.00000000E+00  0.00000000E+00
  0.00000000E+00  0.00000000E+00  0.00000000E+00
  0.00000000E+00  0.00000000E+00  0.00000000E+00
  0.00000000E+00  0.00000000E+00  0.00000000E+00
  0.00000000E+00  0.00000000E+00  0.00000000E+00
  0.00000000E+00  0.00000000E+00  0.00000000E+00
  0.00000000E+00  0.00000000E+00  0.00000000E+00
  0.00000000E+00  0.00000000E+00  0.00000000E+00
  0.00000000E+00  0.00000000E+00  0.00000000E+00
  0.00000000E+00  0.00000000E+00  0.00000000E+00
  0.00000000E+00  0.00000000E+00  0.00000000E+00
  0.00000000E+00  0.00000000E+00  0.00000000E+00
  0.00000000E+00  0.00000000E+00  0.00000000E+00
  0.00000000E+00  0.00000000E+00  0.00000000E+00
  0.00000000E+00  0.00000000E+00  0.00000000E+00
  0.00000000E+00  0.00000000E+00  0.00000000E+00
  0.00000000E+00  0.00000000E+00  0.00000000E+00
  0.00000000E+00  0.00000000E+00  0.00000000E+00
  0.00000000E+00  0.00000000E+00  0.00000000E+00
  0.00000000E+00  0.00000000E+00  0.00000000E+00
  0.00000000E+00  0.00000000E+00  0.00000000E+00
  0.00000000E+00  0.00000000E+00  0.00000000E+00
  0.00000000E+00  0.00000000E+00  0.00000000E+00
  0.00000000E+00  0.00000000E+00  0.00000000E+00
  0.00000000E+00  0.00000000E+00  0.00000000E+00
  0.00000000E+00  0.00000000E+00  0.00000000E+00
  0.00000000E+00  0.00000000E+00  0.00000000E+00
  0.00000000E+00  0.00000000E+00  0.00000000E+00
  0.00000000E+00  0.00000000E+00  0.00000000E+00
  0.00000000E+00  0.00000000E+00  0.00000000E+00
  0.00000000E+00  0.00000000E+00  0.00000000E+00
  0.00000000E+00  0.00000000E+00  0.00000000E+00