Ni  C  H  O                             
   1.00000000000000     
    17.4159994126999997    0.0000000000000000    0.0000000000000000
    -4.9759998320000003    8.6186845275999993    0.0000000000000000
     0.0000000000000000    0.0000000000000000   21.0942993164000008
   Ni   C    H    O 
    84    17    20     6
Selective dynamics
Direct
  0.0010998465911995  0.2501318618100180  0.1884423426753763   T   T   T
 -0.0010499109734963  0.4993679111630231  0.1881892976220250   T   T   T
 -0.0008913330121052  0.7496974468253518  0.1881362131713588   T   T   T
  0.0010892828284676  0.0019225935866028  0.1882442892513430   T   T   T
  0.1464720647784604  0.2545548188539271  0.1952978315346144   T   T   T
  0.1412512982063644  0.5028004878547570  0.1872661014636162   T   T   T
  0.1412612906411152  0.7487418029381331  0.1873349017360464   T   T   T
  0.1405989812910079  0.9947843060198788  0.1880910614321434   T   T   T
  0.2851133956277774  0.2377927988024007  0.1962918353391966   T   T   T
  0.2858982720284551  0.5108810997033572  0.1925176214756693   T   T   T
  0.2848107771704527  0.7537419107828864  0.1865720446945106   T   T   T
  0.2853101090606692  0.9939911967963636  0.1864790944509659   T   T   T
  0.4275898910328819  0.2427748218869443  0.1867017456923350   T   T   T
  0.4258741098897196  0.4967910184986560  0.1943891149040129   T   T   T
  0.4293965671128743  0.7530941919365201  0.1877294646564490   T   T   T
  0.4283405988847854  0.9979423876746530  0.1873555312007967   T   T   T
  0.5731265132480655  0.2444313506840655  0.1905373493228544   T   T   T
  0.5677260165686411  0.5009798507861530  0.1896002120129450   T   T   T
  0.5712766398622980  0.7508501401031570  0.1870380134518990   T   T   T
  0.5708324031219973  0.9943512991263930  0.1868846306444922   T   T   T
  0.7164339020847335  0.2401781570820340  0.1942181927331351   T   T   T
  0.7131995128394284  0.5080027561659078  0.1957025744716146   T   T   T
  0.7153008428912404  0.7554421591965126  0.1870803255989812   T   T   T
  0.7152544755271164  0.9957705694807416  0.1869838560729972   T   T   T
  0.8599036777972004  0.2483704669292702  0.1877204921744858   T   T   T
  0.8541606166935719  0.5015088050324121  0.1959594883905023   T   T   T
  0.8596334787896935  0.7563228069755301  0.1864841263551029   T   T   T
  0.8587852998141450  0.0015183026553834  0.1879423380801299   T   T   T
  0.0969561449215934  0.0874483535091900  0.0952597169105869   T   T   T
  0.0968431867846956  0.3322631340609415  0.0949992729838753   T   T   T
  0.0943133063775236  0.5819313873165400  0.0933629459463050   T   T   T
  0.0946379134216482  0.8338125567577463  0.0935017624353561   T   T   T
  0.2386684957453239  0.0860958844732435  0.0948236822295767   T   T   T
  0.2398710148299169  0.3340123784943975  0.0968671576223948   T   T   T
  0.2383055720512224  0.5813778875080462  0.0937952077685859   T   T   T
  0.2370141445047650  0.8323705528237605  0.0927276210124105   T   T   T
  0.3811289771186986  0.0834659008091840  0.0929431462681095   T   T   T
  0.3802617408983547  0.3335700871252776  0.0952183978073886   T   T   T
  0.3803534534960847  0.5806270672028293  0.0948885916329507   T   T   T
  0.3807236725248127  0.8323634007933354  0.0933404354981042   T   T   T
  0.5247404160482075  0.0855610871657250  0.0939554339678071   T   T   T
  0.5246653501748896  0.3331474719182194  0.0947348888805972   T   T   T
  0.5217886630565505  0.5796773788966306  0.0952173048596542   T   T   T
  0.5232862546347880  0.8330754080999011  0.0931647139820174   T   T   T
  0.6677459381437495  0.0863606368608034  0.0940734309438620   T   T   T
  0.6685434497124683  0.3349079061834156  0.0957645636348478   T   T   T
  0.6659414063750499  0.5809621636411516  0.0952093549275261   T   T   T
  0.6658259751469786  0.8321989004181284  0.0929617342794521   T   T   T
  0.8097855084482457  0.0837710861001969  0.0935559568431320   T   T   T
  0.8090922384713862  0.3344247887616170  0.0958821752869761   T   T   T
  0.8079436417568990  0.5811687002277873  0.0957782969920295   T   T   T
  0.8093228360756776  0.8326992281187815  0.0933286855541447   T   T   T
  0.9531174179594412  0.0839467682571753  0.0939571707279705   T   T   T
  0.9526034991172354  0.3332871639445990  0.0937583195864387   T   T   T
  0.9493745386876538  0.5810258237786735  0.0958674930293477   T   T   T
  0.9527294789958199  0.8337478769510636  0.0932235411412479   T   T   T
  0.0476185721907996  0.1666675060909810  0.0000000084382989   F   F   F
  0.0476185721907996  0.4166675060909810  0.0000000084382989   F   F   F
  0.0476185721907996  0.6666675060909810  0.0000000084382989   F   F   F
  0.0476185721907996  0.9166675060909810  0.0000000084382989   F   F   F
  0.1904757150479455  0.1666675060909810  0.0000000084382989   F   F   F
  0.1904757150479455  0.4166675060909810  0.0000000084382989   F   F   F
  0.1904757150479455  0.6666675060909810  0.0000000084382989   F   F   F
  0.1904757150479455  0.9166675060909810  0.0000000084382989   F   F   F
  0.3333328579050843  0.1666675060909810  0.0000000084382989   F   F   F
  0.3333328579050843  0.4166675060909810  0.0000000084382989   F   F   F
  0.3333328579050843  0.6666675060909810  0.0000000084382989   F   F   F
  0.3333328579050843  0.9166675060909810  0.0000000084382989   F   F   F
  0.4761900007622302  0.1666675060909810  0.0000000084382989   F   F   F
  0.4761900007622302  0.4166675060909810  0.0000000084382989   F   F   F
  0.4761900007622302  0.6666675060909810  0.0000000084382989   F   F   F
  0.4761900007622302  0.9166675060909810  0.0000000084382989   F   F   F
  0.6190471436193690  0.1666675060909810  0.0000000084382989   F   F   F
  0.6190471436193690  0.4166675060909810  0.0000000084382989   F   F   F
  0.6190471436193690  0.6666675060909810  0.0000000084382989   F   F   F
  0.6190471436193690  0.9166675060909810  0.0000000084382989   F   F   F
  0.7619042864765149  0.1666675060909810  0.0000000084382989   F   F   F
  0.7619042864765149  0.4166675060909810  0.0000000084382989   F   F   F
  0.7619042864765149  0.6666675060909810  0.0000000084382989   F   F   F
  0.7619042864765149  0.9166675060909810  0.0000000084382989   F   F   F
  0.9047614293336537  0.1666675060909810  0.0000000084382989   F   F   F
  0.9047614293336537  0.4166675060909810  0.0000000084382989   F   F   F
  0.9047614293336537  0.6666675060909810  0.0000000084382989   F   F   F
  0.9047614293336537  0.9166675060909810  0.0000000084382989   F   F   F
  0.2402504294101038  0.2177090594363139  0.2909508625332529   T   T   T
  0.3351097426965440  0.2914354805428226  0.2873843299680430   T   T   T
  0.3932619361074841  0.4604339479638582  0.2875396704522497   T   T   T
  0.3467332507438142  0.5484247129892905  0.2816576062802488   T   T   T
  0.2513046382155671  0.4753884798886769  0.2840829222906254   T   T   T
  0.1943253005101358  0.3075841605944403  0.2879190803877374   T   T   T
  0.2303887671634599  0.9900849150802105  0.3393073109752147   T   T   T
  0.4751588191864069  0.5405621776192909  0.3301146285652315   T   T   T
  0.5342102020995079  0.4684739828710934  0.3453355882323228   T   T   T
  0.6400589967776485  0.4177956673478148  0.2816231651540057   T   T   T
  0.6083186406638675  0.2523380639998055  0.2828154708964489   T   T   T
  0.7325638262177216  0.5306773310480234  0.2925721660323517   T   T   T
  0.6742289117821325  0.2039914590407977  0.2863787498255693   T   T   T
  0.7984447779579392  0.4816594071178301  0.2881801996257066   T   T   T
  0.7668757874574197  0.3159305357917072  0.2863828944268048   T   T   T
  0.4891437622407414  0.3079406075051157  0.3775736826623624   T   T   T
  0.8365109919725561  0.7766335266989457  0.3383557693058354   T   T   T
  0.3634696417267272  0.2209020655638277  0.3020744817566360   T   T   T
  0.3836540876873326  0.6700928942574829  0.2965803257408145   T   T   T
  0.2217253944176985  0.5432282001802384  0.3009135430022694   T   T   T
  0.0794481308546165  0.1483919913752211  0.3163356862853378   T   T   T
  0.2794897544626354  0.0577964775557255  0.3762539838708673   T   T   T
  0.1769587183751518  0.8809553274419263  0.3586308243405291   T   T   T
  0.2623943076153065  0.9633256627054425  0.2995457156504454   T   T   T
  0.5191211935196794  0.6558360477837103  0.3088920353305734   T   T   T
  0.5864768774301954  0.5525567729957762  0.3773086995760045   T   T   T
  0.4941131382542366  0.6390737101110131  0.4155244450886638   T   T   T
  0.5427741985656921  0.1744864312770442  0.3023300153418660   T   T   T
  0.6526234005113042  0.0855128020412042  0.3017708417744162   T   T   T
  0.8630517393399387  0.5565676940882393  0.3100642074288402   T   T   T
  0.8136985204018188  0.2789137802425317  0.3007052004465511   T   T   T
  0.4514359624409660  0.2178108088672762  0.3415526497591608   T   T   T
  0.5415433948399385  0.2860787158724415  0.3951254213961680   T   T   T
  0.4180300300803149  0.3758161181610247  0.4250354205642373   T   T   T
  0.8789880402638691  0.8129782183597632  0.2952850831499541   T   T   T
  0.8337269683059100  0.8767463885563024  0.3572186961411982   T   T   T
  0.8636486130324043  0.7309079602693268  0.3741618680913273   T   T   T
  0.1185404803195573  0.2593173511205952  0.3245305272410209   T   T   T
  0.1879089050217230  0.0725729380158044  0.3166140087938508   T   T   T
  0.5770682526341319  0.4674109880194478  0.2865272637345539   T   T   T
  0.4430116460401159  0.5619755821930579  0.3916402010381900   T   T   T
  0.4340336359300829  0.2943474313078157  0.4297112965673099   T   T   T
  0.7468728380949741  0.6634794124079030  0.3228889023949627   T   T   T
 
  0.00000000E+00  0.00000000E+00  0.00000000E+00
  0.00000000E+00  0.00000000E+00  0.00000000E+00
  0.00000000E+00  0.00000000E+00  0.00000000E+00
  0.00000000E+00  0.00000000E+00  0.00000000E+00
  0.00000000E+00  0.00000000E+00  0.00000000E+00
  0.00000000E+00  0.00000000E+00  0.00000000E+00
  0.00000000E+00  0.00000000E+00  0.00000000E+00
  0.00000000E+00  0.00000000E+00  0.00000000E+00
  0.00000000E+00  0.00000000E+00  0.00000000E+00
  0.00000000E+00  0.00000000E+00  0.00000000E+00
  0.00000000E+00  0.00000000E+00  0.00000000E+00
  0.00000000E+00  0.00000000E+00  0.00000000E+00
  0.00000000E+00  0.00000000E+00  0.00000000E+00
  0.00000000E+00  0.00000000E+00  0.00000000E+00
  0.00000000E+00  0.00000000E+00  0.00000000E+00
  0.00000000E+00  0.00000000E+00  0.00000000E+00
  0.00000000E+00  0.00000000E+00  0.00000000E+00
  0.00000000E+00  0.00000000E+00  0.00000000E+00
  0.00000000E+00  0.00000000E+00  0.00000000E+00
  0.00000000E+00  0.00000000E+00  0.00000000E+00
  0.00000000E+00  0.00000000E+00  0.00000000E+00
  0.00000000E+00  0.00000000E+00  0.00000000E+00
  0.00000000E+00  0.00000000E+00  0.00000000E+00
  0.00000000E+00  0.00000000E+00  0.00000000E+00
  0.00000000E+00  0.00000000E+00  0.00000000E+00
  0.00000000E+00  0.00000000E+00  0.00000000E+00
  0.00000000E+00  0.00000000E+00  0.00000000E+00
  0.00000000E+00  0.00000000E+00  0.00000000E+00
  0.00000000E+00  0.00000000E+00  0.00000000E+00
  0.00000000E+00  0.00000000E+00  0.00000000E+00
  0.00000000E+00  0.00000000E+00  0.00000000E+00
  0.00000000E+00  0.00000000E+00  0.00000000E+00
  0.00000000E+00  0.00000000E+00  0.00000000E+00
  0.00000000E+00  0.00000000E+00  0.00000000E+00
  0.00000000E+00  0.00000000E+00  0.00000000E+00
  0.00000000E+00  0.00000000E+00  0.00000000E+00
  0.00000000E+00  0.00000000E+00  0.00000000E+00
  0.00000000E+00  0.00000000E+00  0.00000000E+00
  0.00000000E+00  0.00000000E+00  0.00000000E+00
  0.00000000E+00  0.00000000E+00  0.00000000E+00
  0.00000000E+00  0.00000000E+00  0.00000000E+00
  0.00000000E+00  0.00000000E+00  0.00000000E+00
  0.00000000E+00  0.00000000E+00  0.00000000E+00
  0.00000000E+00  0.00000000E+00  0.00000000E+00
  0.00000000E+00  0.00000000E+00  0.00000000E+00
  0.00000000E+00  0.00000000E+00  0.00000000E+00
  0.00000000E+00  0.00000000E+00  0.00000000E+00
  0.00000000E+00  0.00000000E+00  0.00000000E+00
  0.00000000E+00  0.00000000E+00  0.00000000E+00
  0.00000000E+00  0.00000000E+00  0.00000000E+00
  0.00000000E+00  0.00000000E+00  0.00000000E+00
  0.00000000E+00  0.00000000E+00  0.00000000E+00
  0.00000000E+00  0.00000000E+00  0.00000000E+00
  0.00000000E+00  0.00000000E+00  0.00000000E+00
  0.00000000E+00  0.00000000E+00  0.00000000E+00
  0.00000000E+00  0.00000000E+00  0.00000000E+00
  0.00000000E+00  0.00000000E+00  0.00000000E+00
  0.00000000E+00  0.00000000E+00  0.00000000E+00
  0.00000000E+00  0.00000000E+00  0.00000000E+00
  0.00000000E+00  0.00000000E+00  0.00000000E+00
  0.00000000E+00  0.00000000E+00  0.00000000E+00
  0.00000000E+00  0.00000000E+00  0.00000000E+00
  0.00000000E+00  0.00000000E+00  0.00000000E+00
  0.00000000E+00  0.00000000E+00  0.00000000E+00
  0.00000000E+00  0.00000000E+00  0.00000000E+00
  0.00000000E+00  0.00000000E+00  0.00000000E+00
  0.00000000E+00  0.00000000E+00  0.00000000E+00
  0.00000000E+00  0.00000000E+00  0.00000000E+00
  0.00000000E+00  0.00000000E+00  0.00000000E+00
  0.00000000E+00  0.00000000E+00  0.00000000E+00
  0.00000000E+00  0.00000000E+00  0.00000000E+00
  0.00000000E+00  0.00000000E+00  0.00000000E+00
  0.00000000E+00  0.00000000E+00  0.00000000E+00
  0.00000000E+00  0.00000000E+00  0.00000000E+00
  0.00000000E+00  0.00000000E+00  0.00000000E+00
  0.00000000E+00  0.00000000E+00  0.00000000E+00
  0.00000000E+00  0.00000000E+00  0.00000000E+00
  0.00000000E+00  0.00000000E+00  0.00000000E+00
  0.00000000E+00  0.00000000E+00  0.00000000E+00
  0.00000000E+00  0.00000000E+00  0.00000000E+00
  0.00000000E+00  0.00000000E+00  0.00000000E+00
  0.00000000E+00  0.00000000E+00  0.00000000E+00
  0.00000000E+00  0.00000000E+00  0.00000000E+00
  0.00000000E+00  0.00000000E+00  0.00000000E+00
  0.00000000E+00  0.00000000E+00  0.00000000E+00
  0.00000000E+00  0.00000000E+00  0.00000000E+00
  0.00000000E+00  0.00000000E+00  0.00000000E+00
  0.00000000E+00  0.00000000E+00  0.00000000E+00
  0.00000000E+00  0.00000000E+00  0.00000000E+00
  0.00000000E+00  0.00000000E+00  0.00000000E+00
  0.00000000E+00  0.00000000E+00  0.00000000E+00
  0.00000000E+00  0.00000000E+00  0.00000000E+00
  0.00000000E+00  0.00000000E+00  0.00000000E+00
  0.00000000E+00  0.00000000E+00  0.00000000E+00
  0.00000000E+00  0.00000000E+00  0.00000000E+00
  0.00000000E+00  0.00000000E+00  0.00000000E+00
  0.00000000E+00  0.00000000E+00  0.00000000E+00
  0.00000000E+00  0.00000000E+00  0.00000000E+00
  0.00000000E+00  0.00000000E+00  0.00000000E+00
  0.00000000E+00  0.00000000E+00  0.00000000E+00
  0.00000000E+00  0.00000000E+00  0.00000000E+00
  0.00000000E+00  0.00000000E+00  0.00000000E+00
  0.00000000E+00  0.00000000E+00  0.00000000E+00
  0.00000000E+00  0.00000000E+00  0.00000000E+00
  0.00000000E+00  0.00000000E+00  0.00000000E+00
  0.00000000E+00  0.00000000E+00  0.00000000E+00
  0.00000000E+00  0.00000000E+00  0.00000000E+00
  0.00000000E+00  0.00000000E+00  0.00000000E+00
  0.00000000E+00  0.00000000E+00  0.00000000E+00
  0.00000000E+00  0.00000000E+00  0.00000000E+00
  0.00000000E+00  0.00000000E+00  0.00000000E+00
  0.00000000E+00  0.00000000E+00  0.00000000E+00
  0.00000000E+00  0.00000000E+00  0.00000000E+00
  0.00000000E+00  0.00000000E+00  0.00000000E+00
  0.00000000E+00  0.00000000E+00  0.00000000E+00
  0.00000000E+00  0.00000000E+00  0.00000000E+00
  0.00000000E+00  0.00000000E+00  0.00000000E+00
  0.00000000E+00  0.00000000E+00  0.00000000E+00
  0.00000000E+00  0.00000000E+00  0.00000000E+00
  0.00000000E+00  0.00000000E+00  0.00000000E+00
  0.00000000E+00  0.00000000E+00  0.00000000E+00
  0.00000000E+00  0.00000000E+00  0.00000000E+00
  0.00000000E+00  0.00000000E+00  0.00000000E+00
  0.00000000E+00  0.00000000E+00  0.00000000E+00
  0.00000000E+00  0.00000000E+00  0.00000000E+00
  0.00000000E+00  0.00000000E+00  0.00000000E+00
  0.00000000E+00  0.00000000E+00  0.00000000E+00
