H  C  O                                 
   1.00000000000000     
    22.5000000000000000    0.0000000000000000    0.0000000000000000
     0.0000000000000000   22.5000000000000000    0.0000000000000000
     0.0000000000000000    0.0000000000000000   22.5000000000000000
   H    C    O 
    22    22     8
Selective dynamics
Direct
  0.2393835579685019  0.7487212624519098  0.8942518253787825   T   T   T
  0.2020914235587906  0.7966733523865981  0.8415785659797496   T   T   T
  0.2744675996900149  0.8161298836739843  0.8706129393900840   T   T   T
  0.4953402370757790  0.5786353531459136  0.5256637308015149   T   T   T
  0.4585844576787907  0.5121327546021039  0.5477424453973068   T   T   T
  0.5454166568244260  0.4863690056062361  0.6148811663813595   T   T   T
  0.5821760601907333  0.5529726563596852  0.5929021488756879   T   T   T
  0.2734130173186802  0.7160137466592797  0.7043357036049813   T   T   T
  0.3155251772785814  0.6634303090640409  0.6156489494207937   T   T   T
  0.4248774864073173  0.6621988141567492  0.8078768349860096   T   T   T
  0.4670495854267012  0.6095567911186615  0.7191355574892332   T   T   T
  0.5706277911897787  0.4569582746945451  0.4220122272785317   T   T   T
  0.7242862920726394  0.4011861597320997  0.5212970067778606   T   T   T
  0.7638227579634539  0.3490006468413613  0.4310105109890088   T   T   T
  0.6102664948715185  0.4046388264314529  0.3317960438680229   T   T   T
  0.7894508020193410  0.3180768045032912  0.2393638259367846   T   T   T
  0.7544869408558720  0.2514109831546468  0.2632638291294765   T   T   T
  0.8419412460221484  0.2298630389358617  0.3300397403765656   T   T   T
  0.8768042302835251  0.2961535304548958  0.3056307941038985   T   T   T
  0.8441059021771548  0.1897199758953581  0.2249120005045481   T   T   T
  0.9168243380262057  0.2079681450031356  0.2499205891658154   T   T   T
  0.8788669996216654  0.2563160175940767  0.2002365666002499   T   T   T
  0.2450505282666668  0.7796379949599981  0.8568749104355575   F   F   F
  0.3237753697029240  0.7225721333512405  0.8159479726163720   T   T   T
  0.3467876887307219  0.6920887778122772  0.7615670093344962   T   T   T
  0.3156956657314365  0.6926493644848700  0.7074039189244893   T   T   T
  0.4013988632099638  0.6620820330478921  0.7654662684459826   T   T   T
  0.4247133827836560  0.6328797736869549  0.7160545899418560   T   T   T
  0.3934968227197749  0.6334175005971524  0.6619530346753686   T   T   T
  0.3389480912447898  0.6635167673706446  0.6580761595974365   T   T   T
  0.4152395154922420  0.6032152006339384  0.6070893786882235   T   T   T
  0.4906877135891238  0.5461713723906980  0.5619179401151979   T   T   T
  0.5499529197278260  0.5190263035912182  0.5787958873972463   T   T   T
  0.6249168200862215  0.4618721197255984  0.5325596632249290   T   T   T
  0.6454135043730197  0.4320322612851298  0.4770892241600672   T   T   T
  0.6128373721012952  0.4332946973827611  0.4238137643234850   T   T   T
  0.6998378666775846  0.4015593012435592  0.4794505613478776   T   T   T
  0.7216277697217095  0.3726744895844364  0.4293093987419783   T   T   T
  0.6891006984405719  0.3739115873530116  0.3760355590980526   T   T   T
  0.6346721182188380  0.4043417601886970  0.3736665090654778   T   T   T
  0.7101746743947775  0.3437346301519930  0.3207697859838815   T   T   T
  0.7865459087011533  0.2860613058149617  0.2762874403842395   T   T   T
  0.8467511114472910  0.2600577409819821  0.2918007215767154   T   T   T
  0.8731040447718013  0.2266391444650517  0.2387187678776818   T   T   T
  0.2701397642525830  0.7489316844563451  0.8062407489407091   T   T   T
  0.4688302806491174  0.5757503162240679  0.6147061881817116   T   T   T
  0.5714094963888323  0.4896985183721873  0.5257797254477848   T   T   T
  0.3495760790828903  0.7239713133504158  0.8637907339060868   T   T   T
  0.3884995299720383  0.6025915407110616  0.5597577239608802   T   T   T
  0.6522854066188265  0.4619271850817152  0.5795270268067371   T   T   T
  0.6827470883764316  0.3432674694462570  0.2737767606897325   T   T   T
  0.7636429263163145  0.3166442034903262  0.3284013346038333   T   T   T
 
  0.00000000E+00  0.00000000E+00  0.00000000E+00
  0.00000000E+00  0.00000000E+00  0.00000000E+00
  0.00000000E+00  0.00000000E+00  0.00000000E+00
  0.00000000E+00  0.00000000E+00  0.00000000E+00
  0.00000000E+00  0.00000000E+00  0.00000000E+00
  0.00000000E+00  0.00000000E+00  0.00000000E+00
  0.00000000E+00  0.00000000E+00  0.00000000E+00
  0.00000000E+00  0.00000000E+00  0.00000000E+00
  0.00000000E+00  0.00000000E+00  0.00000000E+00
  0.00000000E+00  0.00000000E+00  0.00000000E+00
  0.00000000E+00  0.00000000E+00  0.00000000E+00
  0.00000000E+00  0.00000000E+00  0.00000000E+00
  0.00000000E+00  0.00000000E+00  0.00000000E+00
  0.00000000E+00  0.00000000E+00  0.00000000E+00
  0.00000000E+00  0.00000000E+00  0.00000000E+00
  0.00000000E+00  0.00000000E+00  0.00000000E+00
  0.00000000E+00  0.00000000E+00  0.00000000E+00
  0.00000000E+00  0.00000000E+00  0.00000000E+00
  0.00000000E+00  0.00000000E+00  0.00000000E+00
  0.00000000E+00  0.00000000E+00  0.00000000E+00
  0.00000000E+00  0.00000000E+00  0.00000000E+00
  0.00000000E+00  0.00000000E+00  0.00000000E+00
  0.00000000E+00  0.00000000E+00  0.00000000E+00
  0.00000000E+00  0.00000000E+00  0.00000000E+00
  0.00000000E+00  0.00000000E+00  0.00000000E+00
  0.00000000E+00  0.00000000E+00  0.00000000E+00
  0.00000000E+00  0.00000000E+00  0.00000000E+00
  0.00000000E+00  0.00000000E+00  0.00000000E+00
  0.00000000E+00  0.00000000E+00  0.00000000E+00
  0.00000000E+00  0.00000000E+00  0.00000000E+00
  0.00000000E+00  0.00000000E+00  0.00000000E+00
  0.00000000E+00  0.00000000E+00  0.00000000E+00
  0.00000000E+00  0.00000000E+00  0.00000000E+00
  0.00000000E+00  0.00000000E+00  0.00000000E+00
  0.00000000E+00  0.00000000E+00  0.00000000E+00
  0.00000000E+00  0.00000000E+00  0.00000000E+00
  0.00000000E+00  0.00000000E+00  0.00000000E+00
  0.00000000E+00  0.00000000E+00  0.00000000E+00
  0.00000000E+00  0.00000000E+00  0.00000000E+00
  0.00000000E+00  0.00000000E+00  0.00000000E+00
  0.00000000E+00  0.00000000E+00  0.00000000E+00
  0.00000000E+00  0.00000000E+00  0.00000000E+00
  0.00000000E+00  0.00000000E+00  0.00000000E+00
  0.00000000E+00  0.00000000E+00  0.00000000E+00
  0.00000000E+00  0.00000000E+00  0.00000000E+00
  0.00000000E+00  0.00000000E+00  0.00000000E+00
  0.00000000E+00  0.00000000E+00  0.00000000E+00
  0.00000000E+00  0.00000000E+00  0.00000000E+00
  0.00000000E+00  0.00000000E+00  0.00000000E+00
  0.00000000E+00  0.00000000E+00  0.00000000E+00
  0.00000000E+00  0.00000000E+00  0.00000000E+00
  0.00000000E+00  0.00000000E+00  0.00000000E+00
