Ag                                      
   1.00000000000000     
    17.3505005835000006    0.0000000000000000    0.0000000000000000
    -8.6752502918999994   15.0259742738999993    0.0000000000000000
     0.0000000000000000    0.0000000000000000   22.0832996367999996
   Ag
   144
Selective dynamics
Direct
  0.0000000000000000  0.0000000000000000  0.0000000000000000   F   F   F
  0.9999999999987850  0.1666666666699967  0.0000000000000000   F   F   F
  0.1666666666683270  0.1666666666699967  0.0000000000000000   F   F   F
  0.1666666666695491  0.0000000000000000  0.0000000000000000   F   F   F
  0.0000000000000000  0.3333333333333357  0.0000000000000000   F   F   F
  0.0000000000045475  0.5000000000033253  0.0000000000000000   F   F   F
  0.1666666666683270  0.5000000000033253  0.0000000000000000   F   F   F
  0.1666666666637866  0.3333333333333357  0.0000000000000000   F   F   F
  0.0000000000000000  0.6666666666666643  0.0000000000000000   F   F   F
  0.9999999999954525  0.8333333333300033  0.0000000000000000   F   F   F
  0.1666666666650016  0.8333333333300033  0.0000000000000000   F   F   F
  0.1666666666637866  0.6666666666666643  0.0000000000000000   F   F   F
  0.3333333333333357  0.0000000000000000  0.0000000000000000   F   F   F
  0.3333333333321136  0.1666666666699967  0.0000000000000000   F   F   F
  0.5000000000016627  0.1666666666699967  0.0000000000000000   F   F   F
  0.5000000000028848  0.0000000000000000  0.0000000000000000   F   F   F
  0.3333333333333357  0.3333333333333357  0.0000000000000000   F   F   F
  0.3333333333321136  0.5000000000033253  0.0000000000000000   F   F   F
  0.5000000000016627  0.5000000000033253  0.0000000000000000   F   F   F
  0.5000000000028848  0.3333333333333357  0.0000000000000000   F   F   F
  0.3333333333333357  0.6666666666666643  0.0000000000000000   F   F   F
  0.3333333333287882  0.8333333333300033  0.0000000000000000   F   F   F
  0.4999999999983373  0.8333333333300033  0.0000000000000000   F   F   F
  0.5000000000028848  0.6666666666666643  0.0000000000000000   F   F   F
  0.6666666666666643  0.0000000000000000  0.0000000000000000   F   F   F
  0.6666666666654493  0.1666666666699967  0.0000000000000000   F   F   F
  0.8333333333349984  0.1666666666699967  0.0000000000000000   F   F   F
  0.8333333333362134  0.0000000000000000  0.0000000000000000   F   F   F
  0.6666666666666643  0.3333333333333357  0.0000000000000000   F   F   F
  0.6666666666654493  0.5000000000033253  0.0000000000000000   F   F   F
  0.8333333333349984  0.5000000000033253  0.0000000000000000   F   F   F
  0.8333333333304509  0.3333333333333357  0.0000000000000000   F   F   F
  0.6666666666666643  0.6666666666666643  0.0000000000000000   F   F   F
  0.6666666666621239  0.8333333333300033  0.0000000000000000   F   F   F
  0.8333333333316730  0.8333333333300033  0.0000000000000000   F   F   F
  0.8333333333362134  0.6666666666666643  0.0000000000000000   F   F   F
  0.2222233413339652  0.1111100016655797  0.1069199959984815   F   F   F
  0.2222233413333825  0.2777766586656512  0.1069199959984815   F   F   F
  0.0555566649984058  0.2777766586656512  0.1069199959984815   F   F   F
  0.0555566649989956  0.1111100016655797  0.1069199959984815   F   F   F
  0.2222233413339652  0.4444433349989154  0.1069199959984815   F   F   F
  0.2222233413333825  0.6111099919989869  0.1069199959984815   F   F   F
  0.0555566649984058  0.6111099919989869  0.1069199959984815   F   F   F
  0.0555566649989956  0.4444433349989154  0.1069199959984815   F   F   F
  0.2222233413339652  0.7777766683322440  0.1069199959984815   F   F   F
  0.2222233413333825  0.9444433253323226  0.1069199959984815   F   F   F
  0.0555566649984058  0.9444433253323226  0.1069199959984815   F   F   F
  0.0555566649989956  0.7777766683322440  0.1069199959984815   F   F   F
  0.5555566746673009  0.1111100016655797  0.1069199959984815   F   F   F
  0.5555566746667182  0.2777766586656512  0.1069199959984815   F   F   F
  0.3888899983317415  0.2777766586656512  0.1069199959984815   F   F   F
  0.3888899983323242  0.1111100016655797  0.1069199959984815   F   F   F
  0.5555566746673009  0.4444433349989154  0.1069199959984815   F   F   F
  0.5555566746667182  0.6111099919989869  0.1069199959984815   F   F   F
  0.3888899983317415  0.6111099919989869  0.1069199959984815   F   F   F
  0.3888899983323242  0.4444433349989154  0.1069199959984815   F   F   F
  0.5555566746673009  0.7777766683322440  0.1069199959984815   F   F   F
  0.5555566746667182  0.9444433253323226  0.1069199959984815   F   F   F
  0.3888899983317415  0.9444433253323226  0.1069199959984815   F   F   F
  0.3888899983323242  0.7777766683322440  0.1069199959984815   F   F   F
  0.8888900080006366  0.1111100016655797  0.1069199959984815   F   F   F
  0.8888900080000539  0.2777766586656512  0.1069199959984815   F   F   F
  0.7222233316650772  0.2777766586656512  0.1069199959984815   F   F   F
  0.7222233316656599  0.1111100016655797  0.1069199959984815   F   F   F
  0.8888900080006366  0.4444433349989154  0.1069199959984815   F   F   F
  0.8888900080000539  0.6111099919989869  0.1069199959984815   F   F   F
  0.7222233316650772  0.6111099919989869  0.1069199959984815   F   F   F
  0.7222233316656599  0.4444433349989154  0.1069199959984815   F   F   F
  0.8888900080006366  0.7777766683322440  0.1069199959984815   F   F   F
  0.8888900080000539  0.9444433253323226  0.1069199959984815   F   F   F
  0.7222233316650772  0.9444433253323226  0.1069199959984815   F   F   F
  0.7222233316656599  0.7777766683322440  0.1069199959984815   F   F   F
  0.1111138968664901  0.2222264799442074  0.2147815727496024   T   T   T
  0.1111138968659004  0.0555598036109429  0.2147815727496024   T   T   T
  0.2777805538642599  0.0555598036109429  0.2147815727496024   T   T   T
  0.2777805538648426  0.2222264799442074  0.2147815727496024   T   T   T
  0.1111138968664901  0.5555598132775361  0.2147815727496024   T   T   T
  0.1111138968659004  0.3888931369442786  0.2147815727496024   T   T   T
  0.2777805538642599  0.3888931369442786  0.2147815727496024   T   T   T
  0.2777805538648426  0.5555598132775361  0.2147815727496024   T   T   T
  0.1111138968664901  0.8888931466108718  0.2147815727496024   T   T   T
  0.1111138968659004  0.7222264702776076  0.2147815727496024   T   T   T
  0.2777805538642599  0.7222264702776076  0.2147815727496024   T   T   T
  0.2777805538648426  0.8888931466108718  0.2147815727496024   T   T   T
  0.4444472301998192  0.2222264799442074  0.2147815727496024   T   T   T
  0.4444472301992366  0.0555598036109429  0.2147815727496024   T   T   T
  0.6111138871975951  0.0555598036109429  0.2147815727496024   T   T   T
  0.6111138871981776  0.2222264799442074  0.2147815727496024   T   T   T
  0.4444472301998192  0.5555598132775361  0.2147815727496024   T   T   T
  0.4444472301992366  0.3888931369442786  0.2147815727496024   T   T   T
  0.6111138871975951  0.3888931369442786  0.2147815727496024   T   T   T
  0.6111138871981777  0.5555598132775361  0.2147815727496024   T   T   T
  0.4444472301998192  0.8888931466108718  0.2147815727496024   T   T   T
  0.4444472301992366  0.7222264702776076  0.2147815727496024   T   T   T
  0.6111138871975951  0.7222264702776076  0.2147815727496024   T   T   T
  0.6111138871981777  0.8888931466108718  0.2147815727496024   T   T   T
  0.7777805635331544  0.2222264799442074  0.2147815727496024   T   T   T
  0.7777805635325717  0.0555598036109429  0.2147815727496024   T   T   T
  0.9444472205309308  0.0555598036109429  0.2147815727496024   T   T   T
  0.9444472205315133  0.2222264799442074  0.2147815727496024   T   T   T
  0.7777805635331544  0.5555598132775361  0.2147815727496024   T   T   T
  0.7777805635325717  0.3888931369442786  0.2147815727496024   T   T   T
  0.9444472205309308  0.3888931369442786  0.2147815727496024   T   T   T
  0.9444472205315134  0.5555598132775361  0.2147815727496024   T   T   T
  0.7777805635331544  0.8888931466108718  0.2147815727496024   T   T   T
  0.7777805635325717  0.7222264702776076  0.2147815727496024   T   T   T
  0.9444472205309308  0.7222264702776076  0.2147815727496024   T   T   T
  0.9444472205315134  0.8888931466108718  0.2147815727496024   T   T   T
  0.9999965915755453 -0.0000012852783691  0.3238417177329636   T   T   T
  0.9999965915709979  0.1666653813849696  0.3238417177329636   T   T   T
  0.1666632582405470  0.1666653813849696  0.3238417177329636   T   T   T
  0.1666632582393320 -0.0000012852783691  0.3238417177329636   T   T   T
  0.9999965915755453  0.3333320480549666  0.3238417177329636   T   T   T
  0.9999965915709979  0.4999987147183056  0.3238417177329636   T   T   T
  0.1666632582405470  0.4999987147183056  0.3238417177329636   T   T   T
  0.1666632582393320  0.3333320480549666  0.3238417177329636   T   T   T
  0.9999965915755453  0.6666653813883028  0.3238417177329636   T   T   T
  0.9999965915709979  0.8333320480516417  0.3238417177329636   T   T   T
  0.1666632582405470  0.8333320480516417  0.3238417177329636   T   T   T
  0.1666632582393320  0.6666653813883028  0.3238417177329636   T   T   T
  0.3333299249088733 -0.0000012852783691  0.3238417177329636   T   T   T
  0.3333299249043329  0.1666653813849696  0.3238417177329636   T   T   T
  0.4999965915738820  0.1666653813849696  0.3238417177329636   T   T   T
  0.4999965915726599 -0.0000012852783691  0.3238417177329636   T   T   T
  0.3333299249088733  0.3333320480549666  0.3238417177329636   T   T   T
  0.3333299249043329  0.4999987147183056  0.3238417177329636   T   T   T
  0.4999965915738820  0.4999987147183056  0.3238417177329636   T   T   T
  0.4999965915726599  0.3333320480549666  0.3238417177329636   T   T   T
  0.3333299249088733  0.6666653813883028  0.3238417177329636   T   T   T
  0.3333299249043329  0.8333320480516417  0.3238417177329636   T   T   T
  0.4999965915738820  0.8333320480516417  0.3238417177329636   T   T   T
  0.4999965915726599  0.6666653813883028  0.3238417177329636   T   T   T
  0.6666632582422096 -0.0000012852783691  0.3238417177329636   T   T   T
  0.6666632582376621  0.1666653813849696  0.3238417177329636   T   T   T
  0.8333299249072113  0.1666653813849696  0.3238417177329636   T   T   T
  0.8333299249059962 -0.0000012852783691  0.3238417177329636   T   T   T
  0.6666632582422096  0.3333320480549666  0.3238417177329636   T   T   T
  0.6666632582376621  0.4999987147183056  0.3238417177329636   T   T   T
  0.8333299249072113  0.4999987147183056  0.3238417177329636   T   T   T
  0.8333299249059962  0.3333320480549666  0.3238417177329636   T   T   T
  0.6666632582422096  0.6666653813883028  0.3238417177329636   T   T   T
  0.6666632582376621  0.8333320480516417  0.3238417177329636   T   T   T
  0.8333299249072113  0.8333320480516417  0.3238417177329636   T   T   T
  0.8333299249059962  0.6666653813883028  0.3238417177329636   T   T   T
 
  0.00000000E+00  0.00000000E+00  0.00000000E+00
  0.00000000E+00  0.00000000E+00  0.00000000E+00
  0.00000000E+00  0.00000000E+00  0.00000000E+00
  0.00000000E+00  0.00000000E+00  0.00000000E+00
  0.00000000E+00  0.00000000E+00  0.00000000E+00
  0.00000000E+00  0.00000000E+00  0.00000000E+00
  0.00000000E+00  0.00000000E+00  0.00000000E+00
  0.00000000E+00  0.00000000E+00  0.00000000E+00
  0.00000000E+00  0.00000000E+00  0.00000000E+00
  0.00000000E+00  0.00000000E+00  0.00000000E+00
  0.00000000E+00  0.00000000E+00  0.00000000E+00
  0.00000000E+00  0.00000000E+00  0.00000000E+00
  0.00000000E+00  0.00000000E+00  0.00000000E+00
  0.00000000E+00  0.00000000E+00  0.00000000E+00
  0.00000000E+00  0.00000000E+00  0.00000000E+00
  0.00000000E+00  0.00000000E+00  0.00000000E+00
  0.00000000E+00  0.00000000E+00  0.00000000E+00
  0.00000000E+00  0.00000000E+00  0.00000000E+00
  0.00000000E+00  0.00000000E+00  0.00000000E+00
  0.00000000E+00  0.00000000E+00  0.00000000E+00
  0.00000000E+00  0.00000000E+00  0.00000000E+00
  0.00000000E+00  0.00000000E+00  0.00000000E+00
  0.00000000E+00  0.00000000E+00  0.00000000E+00
  0.00000000E+00  0.00000000E+00  0.00000000E+00
  0.00000000E+00  0.00000000E+00  0.00000000E+00
  0.00000000E+00  0.00000000E+00  0.00000000E+00
  0.00000000E+00  0.00000000E+00  0.00000000E+00
  0.00000000E+00  0.00000000E+00  0.00000000E+00
  0.00000000E+00  0.00000000E+00  0.00000000E+00
  0.00000000E+00  0.00000000E+00  0.00000000E+00
  0.00000000E+00  0.00000000E+00  0.00000000E+00
  0.00000000E+00  0.00000000E+00  0.00000000E+00
  0.00000000E+00  0.00000000E+00  0.00000000E+00
  0.00000000E+00  0.00000000E+00  0.00000000E+00
  0.00000000E+00  0.00000000E+00  0.00000000E+00
  0.00000000E+00  0.00000000E+00  0.00000000E+00
  0.00000000E+00  0.00000000E+00  0.00000000E+00
  0.00000000E+00  0.00000000E+00  0.00000000E+00
  0.00000000E+00  0.00000000E+00  0.00000000E+00
  0.00000000E+00  0.00000000E+00  0.00000000E+00
  0.00000000E+00  0.00000000E+00  0.00000000E+00
  0.00000000E+00  0.00000000E+00  0.00000000E+00
  0.00000000E+00  0.00000000E+00  0.00000000E+00
  0.00000000E+00  0.00000000E+00  0.00000000E+00
  0.00000000E+00  0.00000000E+00  0.00000000E+00
  0.00000000E+00  0.00000000E+00  0.00000000E+00
  0.00000000E+00  0.00000000E+00  0.00000000E+00
  0.00000000E+00  0.00000000E+00  0.00000000E+00
  0.00000000E+00  0.00000000E+00  0.00000000E+00
  0.00000000E+00  0.00000000E+00  0.00000000E+00
  0.00000000E+00  0.00000000E+00  0.00000000E+00
  0.00000000E+00  0.00000000E+00  0.00000000E+00
  0.00000000E+00  0.00000000E+00  0.00000000E+00
  0.00000000E+00  0.00000000E+00  0.00000000E+00
  0.00000000E+00  0.00000000E+00  0.00000000E+00
  0.00000000E+00  0.00000000E+00  0.00000000E+00
  0.00000000E+00  0.00000000E+00  0.00000000E+00
  0.00000000E+00  0.00000000E+00  0.00000000E+00
  0.00000000E+00  0.00000000E+00  0.00000000E+00
  0.00000000E+00  0.00000000E+00  0.00000000E+00
  0.00000000E+00  0.00000000E+00  0.00000000E+00
  0.00000000E+00  0.00000000E+00  0.00000000E+00
  0.00000000E+00  0.00000000E+00  0.00000000E+00
  0.00000000E+00  0.00000000E+00  0.00000000E+00
  0.00000000E+00  0.00000000E+00  0.00000000E+00
  0.00000000E+00  0.00000000E+00  0.00000000E+00
  0.00000000E+00  0.00000000E+00  0.00000000E+00
  0.00000000E+00  0.00000000E+00  0.00000000E+00
  0.00000000E+00  0.00000000E+00  0.00000000E+00
  0.00000000E+00  0.00000000E+00  0.00000000E+00
  0.00000000E+00  0.00000000E+00  0.00000000E+00
  0.00000000E+00  0.00000000E+00  0.00000000E+00
  0.00000000E+00  0.00000000E+00  0.00000000E+00
  0.00000000E+00  0.00000000E+00  0.00000000E+00
  0.00000000E+00  0.00000000E+00  0.00000000E+00
  0.00000000E+00  0.00000000E+00  0.00000000E+00
  0.00000000E+00  0.00000000E+00  0.00000000E+00
  0.00000000E+00  0.00000000E+00  0.00000000E+00
  0.00000000E+00  0.00000000E+00  0.00000000E+00
  0.00000000E+00  0.00000000E+00  0.00000000E+00
  0.00000000E+00  0.00000000E+00  0.00000000E+00
  0.00000000E+00  0.00000000E+00  0.00000000E+00
  0.00000000E+00  0.00000000E+00  0.00000000E+00
  0.00000000E+00  0.00000000E+00  0.00000000E+00
  0.00000000E+00  0.00000000E+00  0.00000000E+00
  0.00000000E+00  0.00000000E+00  0.00000000E+00
  0.00000000E+00  0.00000000E+00  0.00000000E+00
  0.00000000E+00  0.00000000E+00  0.00000000E+00
  0.00000000E+00  0.00000000E+00  0.00000000E+00
  0.00000000E+00  0.00000000E+00  0.00000000E+00
  0.00000000E+00  0.00000000E+00  0.00000000E+00
  0.00000000E+00  0.00000000E+00  0.00000000E+00
  0.00000000E+00  0.00000000E+00  0.00000000E+00
  0.00000000E+00  0.00000000E+00  0.00000000E+00
  0.00000000E+00  0.00000000E+00  0.00000000E+00
  0.00000000E+00  0.00000000E+00  0.00000000E+00
  0.00000000E+00  0.00000000E+00  0.00000000E+00
  0.00000000E+00  0.00000000E+00  0.00000000E+00
  0.00000000E+00  0.00000000E+00  0.00000000E+00
  0.00000000E+00  0.00000000E+00  0.00000000E+00
  0.00000000E+00  0.00000000E+00  0.00000000E+00
  0.00000000E+00  0.00000000E+00  0.00000000E+00
  0.00000000E+00  0.00000000E+00  0.00000000E+00
  0.00000000E+00  0.00000000E+00  0.00000000E+00
  0.00000000E+00  0.00000000E+00  0.00000000E+00
  0.00000000E+00  0.00000000E+00  0.00000000E+00
  0.00000000E+00  0.00000000E+00  0.00000000E+00
  0.00000000E+00  0.00000000E+00  0.00000000E+00
  0.00000000E+00  0.00000000E+00  0.00000000E+00
  0.00000000E+00  0.00000000E+00  0.00000000E+00
  0.00000000E+00  0.00000000E+00  0.00000000E+00
  0.00000000E+00  0.00000000E+00  0.00000000E+00
  0.00000000E+00  0.00000000E+00  0.00000000E+00
  0.00000000E+00  0.00000000E+00  0.00000000E+00
  0.00000000E+00  0.00000000E+00  0.00000000E+00
  0.00000000E+00  0.00000000E+00  0.00000000E+00
  0.00000000E+00  0.00000000E+00  0.00000000E+00
  0.00000000E+00  0.00000000E+00  0.00000000E+00
  0.00000000E+00  0.00000000E+00  0.00000000E+00
  0.00000000E+00  0.00000000E+00  0.00000000E+00
  0.00000000E+00  0.00000000E+00  0.00000000E+00
  0.00000000E+00  0.00000000E+00  0.00000000E+00
  0.00000000E+00  0.00000000E+00  0.00000000E+00
  0.00000000E+00  0.00000000E+00  0.00000000E+00
  0.00000000E+00  0.00000000E+00  0.00000000E+00
  0.00000000E+00  0.00000000E+00  0.00000000E+00
  0.00000000E+00  0.00000000E+00  0.00000000E+00
  0.00000000E+00  0.00000000E+00  0.00000000E+00
  0.00000000E+00  0.00000000E+00  0.00000000E+00
  0.00000000E+00  0.00000000E+00  0.00000000E+00
  0.00000000E+00  0.00000000E+00  0.00000000E+00
  0.00000000E+00  0.00000000E+00  0.00000000E+00
  0.00000000E+00  0.00000000E+00  0.00000000E+00
  0.00000000E+00  0.00000000E+00  0.00000000E+00
  0.00000000E+00  0.00000000E+00  0.00000000E+00
  0.00000000E+00  0.00000000E+00  0.00000000E+00
  0.00000000E+00  0.00000000E+00  0.00000000E+00
  0.00000000E+00  0.00000000E+00  0.00000000E+00
  0.00000000E+00  0.00000000E+00  0.00000000E+00
  0.00000000E+00  0.00000000E+00  0.00000000E+00
  0.00000000E+00  0.00000000E+00  0.00000000E+00
  0.00000000E+00  0.00000000E+00  0.00000000E+00
  0.00000000E+00  0.00000000E+00  0.00000000E+00
  0.00000000E+00  0.00000000E+00  0.00000000E+00
