Ru  C  H  O                             
   1.00000000000000     
    18.9881999495999985    0.0000000000000000    0.0000000000000000
    -5.4251999855999999    9.3967220160000000    0.0000000000000000
     0.0000000000000000    0.0000000000000000   21.4363579450000010
   Ru   C    H    O 
    84    10    14     4
Selective dynamics
Direct
  0.0476185722258506  0.1666675061083325  0.2001739733964882   F   F   F
  0.0476185722258506  0.4166675061083325  0.2001739733964882   F   F   F
  0.0476185722258506  0.6666675061083325  0.2001739733964882   F   F   F
  0.0476185722258506  0.9166675061083325  0.2001739733964882   F   F   F
  0.1904757150829965  0.1666675061083325  0.2001739733964882   F   F   F
  0.1904757150829965  0.4166675061083325  0.2001739733964882   F   F   F
  0.1904757150829965  0.6666675061083325  0.2001739733964882   F   F   F
  0.1904757150829965  0.9166675061083325  0.2001739733964882   F   F   F
  0.3333328579401353  0.1666675061083325  0.2001739733964882   F   F   F
  0.3333328579401353  0.4166675061083325  0.2001739733964882   F   F   F
  0.3333328579401353  0.6666675061083325  0.2001739733964882   F   F   F
  0.3333328579401353  0.9166675061083325  0.2001739733964882   F   F   F
  0.4761900007972812  0.1666675061083325  0.2001739733964882   F   F   F
  0.4761900007972812  0.4166675061083325  0.2001739733964882   F   F   F
  0.4761900007972812  0.6666675061083325  0.2001739733964882   F   F   F
  0.4761900007972812  0.9166675061083325  0.2001739733964882   F   F   F
  0.6190471436544200  0.1666675061083325  0.2001739733964882   F   F   F
  0.6190471436544200  0.4166675061083325  0.2001739733964882   F   F   F
  0.6190471436544200  0.6666675061083325  0.2001739733964882   F   F   F
  0.6190471436544200  0.9166675061083325  0.2001739733964882   F   F   F
  0.7619042865115659  0.1666675061083325  0.2001739733964882   F   F   F
  0.7619042865115659  0.4166675061083325  0.2001739733964882   F   F   F
  0.7619042865115659  0.6666675061083325  0.2001739733964882   F   F   F
  0.7619042865115659  0.9166675061083325  0.2001739733964882   F   F   F
  0.9047614293687047  0.1666675061083325  0.2001739733964882   F   F   F
  0.9047614293687047  0.4166675061083325  0.2001739733964882   F   F   F
  0.9047614293687047  0.6666675061083325  0.2001739733964882   F   F   F
  0.9047614293687047  0.9166675061083325  0.2001739733964882   F   F   F
  0.0952385748978628  0.0833325013410686  0.1000936681737272   F   F   F
  0.0952385748978628  0.3333325013410686  0.1000936681737272   F   F   F
  0.0952385748978628  0.5833325013410686  0.1000936681737272   F   F   F
  0.0952385748978628  0.8333325013410686  0.1000936681737272   F   F   F
  0.2380957177550087  0.0833325013410686  0.1000936681737272   F   F   F
  0.2380957177550087  0.3333325013410686  0.1000936681737272   F   F   F
  0.2380957177550087  0.5833325013410686  0.1000936681737272   F   F   F
  0.2380957177550087  0.8333325013410686  0.1000936681737272   F   F   F
  0.3809528606121475  0.0833325013410686  0.1000936681737272   F   F   F
  0.3809528606121475  0.3333325013410686  0.1000936681737272   F   F   F
  0.3809528606121475  0.5833325013410686  0.1000936681737272   F   F   F
  0.3809528606121475  0.8333325013410686  0.1000936681737272   F   F   F
  0.5238100034692934  0.0833325013410686  0.1000936681737272   F   F   F
  0.5238100034692934  0.3333325013410686  0.1000936681737272   F   F   F
  0.5238100034692934  0.5833325013410686  0.1000936681737272   F   F   F
  0.5238100034692934  0.8333325013410686  0.1000936681737272   F   F   F
  0.6666671463264322  0.0833325013410686  0.1000936681737272   F   F   F
  0.6666671463264322  0.3333325013410686  0.1000936681737272   F   F   F
  0.6666671463264322  0.5833325013410686  0.1000936681737272   F   F   F
  0.6666671463264322  0.8333325013410686  0.1000936681737272   F   F   F
  0.8095242891835781  0.0833325013410686  0.1000936681737272   F   F   F
  0.8095242891835781  0.3333325013410686  0.1000936681737272   F   F   F
  0.8095242891835781  0.5833325013410686  0.1000936681737272   F   F   F
  0.8095242891835781  0.8333325013410686  0.1000936681737272   F   F   F
  0.9523814320407240  0.0833325013410686  0.1000936681737272   F   F   F
  0.9523814320407240  0.3333325013410686  0.1000936681737272   F   F   F
  0.9523814320407240  0.5833325013410686  0.1000936681737272   F   F   F
  0.9523814320407240  0.8333325013410686  0.1000936681737272   F   F   F
  0.0476185722258506  0.1666675061083325  0.0000000214122196   F   F   F
  0.0476185722258506  0.4166675061083325  0.0000000214122196   F   F   F
  0.0476185722258506  0.6666675061083325  0.0000000214122196   F   F   F
  0.0476185722258506  0.9166675061083325  0.0000000214122196   F   F   F
  0.1904757150829965  0.1666675061083325  0.0000000214122196   F   F   F
  0.1904757150829965  0.4166675061083325  0.0000000214122196   F   F   F
  0.1904757150829965  0.6666675061083325  0.0000000214122196   F   F   F
  0.1904757150829965  0.9166675061083325  0.0000000214122196   F   F   F
  0.3333328579401353  0.1666675061083325  0.0000000214122196   F   F   F
  0.3333328579401353  0.4166675061083325  0.0000000214122196   F   F   F
  0.3333328579401353  0.6666675061083325  0.0000000214122196   F   F   F
  0.3333328579401353  0.9166675061083325  0.0000000214122196   F   F   F
  0.4761900007972812  0.1666675061083325  0.0000000214122196   F   F   F
  0.4761900007972812  0.4166675061083325  0.0000000214122196   F   F   F
  0.4761900007972812  0.6666675061083325  0.0000000214122196   F   F   F
  0.4761900007972812  0.9166675061083325  0.0000000214122196   F   F   F
  0.6190471436544200  0.1666675061083325  0.0000000214122196   F   F   F
  0.6190471436544200  0.4166675061083325  0.0000000214122196   F   F   F
  0.6190471436544200  0.6666675061083325  0.0000000214122196   F   F   F
  0.6190471436544200  0.9166675061083325  0.0000000214122196   F   F   F
  0.7619042865115659  0.1666675061083325  0.0000000214122196   F   F   F
  0.7619042865115659  0.4166675061083325  0.0000000214122196   F   F   F
  0.7619042865115659  0.6666675061083325  0.0000000214122196   F   F   F
  0.7619042865115659  0.9166675061083325  0.0000000214122196   F   F   F
  0.9047614293687047  0.1666675061083325  0.0000000214122196   F   F   F
  0.9047614293687047  0.4166675061083325  0.0000000214122196   F   F   F
  0.9047614293687047  0.6666675061083325  0.0000000214122196   F   F   F
  0.9047614293687047  0.9166675061083325  0.0000000214122196   F   F   F
  0.2035076852900315  0.4439897011791455  0.3001639765787238   T   T   T
  0.2924889119706606  0.5328428456793944  0.2964099129347600   T   T   T
  0.3334287546453132  0.6866087450022631  0.3007220419876034   T   T   T
  0.2831508252452188  0.7528616236265885  0.2950681512891541   T   T   T
  0.1953122766279672  0.6698526953762616  0.3003775457410128   T   T   T
  0.1576829837749961  0.5182734489677931  0.2988704263505003   T   T   T
  0.2022753542759785  0.2408093036659353  0.3480676184811974   T   T   T
  0.4138222599116849  0.7720750288844883  0.3351278543117386   T   T   T
  0.4640409900984294  0.6997950149471632  0.3457285136187009   T   T   T
  0.5421325803047373  0.7908839102898343  0.3829601303618980   T   T   T
  0.3266279578278045  0.4808295785140275  0.3111113033763352   T   T   T
  0.3116153404893507  0.8653348712901603  0.3093701972030026   T   T   T
  0.1609994649023690  0.7168762865529331  0.3196899062992031   T   T   T
  0.0618817880891246  0.3430282712915705  0.3217355296782126   T   T   T
  0.2600327716465539  0.2973269682637046  0.3741640412971596   T   T   T
  0.1583799961330327  0.1447706445154361  0.3731380794226819   T   T   T
  0.2161104545348088  0.2096218620950311  0.3018148647654939   T   T   T
  0.3993076983660038  0.7986245693369154  0.3816234064384155   T   T   T
  0.4274415388547657  0.5995717018629662  0.3714681550946409   T   T   T
  0.5181053694616904  0.9508565529733951  0.3219894639883472   T   T   T
  0.5266790191483873  0.8055154289617106  0.4308841947047711   T   T   T
  0.5782204136429893  0.7371311917878901  0.3852440496384431   T   T   T
  0.6243021257587992  0.9316705050146965  0.3232824596702250   T   T   T
  0.4804739283416183  0.6692536386742752  0.3004259161219571   T   T   T
  0.0755860437014568  0.4419054795004974  0.3129522944127517   T   T   T
  0.1657741141941971  0.3264812525755785  0.3408350829732528   T   T   T
  0.4618355945375989  0.9089867986368315  0.3037447171021427   T   T   T
  0.5910961512231261  0.9332005380404139  0.3584591014405399   T   T   T
 
  0.00000000E+00  0.00000000E+00  0.00000000E+00
  0.00000000E+00  0.00000000E+00  0.00000000E+00
  0.00000000E+00  0.00000000E+00  0.00000000E+00
  0.00000000E+00  0.00000000E+00  0.00000000E+00
  0.00000000E+00  0.00000000E+00  0.00000000E+00
  0.00000000E+00  0.00000000E+00  0.00000000E+00
  0.00000000E+00  0.00000000E+00  0.00000000E+00
  0.00000000E+00  0.00000000E+00  0.00000000E+00
  0.00000000E+00  0.00000000E+00  0.00000000E+00
  0.00000000E+00  0.00000000E+00  0.00000000E+00
  0.00000000E+00  0.00000000E+00  0.00000000E+00
  0.00000000E+00  0.00000000E+00  0.00000000E+00
  0.00000000E+00  0.00000000E+00  0.00000000E+00
  0.00000000E+00  0.00000000E+00  0.00000000E+00
  0.00000000E+00  0.00000000E+00  0.00000000E+00
  0.00000000E+00  0.00000000E+00  0.00000000E+00
  0.00000000E+00  0.00000000E+00  0.00000000E+00
  0.00000000E+00  0.00000000E+00  0.00000000E+00
  0.00000000E+00  0.00000000E+00  0.00000000E+00
  0.00000000E+00  0.00000000E+00  0.00000000E+00
  0.00000000E+00  0.00000000E+00  0.00000000E+00
  0.00000000E+00  0.00000000E+00  0.00000000E+00
  0.00000000E+00  0.00000000E+00  0.00000000E+00
  0.00000000E+00  0.00000000E+00  0.00000000E+00
  0.00000000E+00  0.00000000E+00  0.00000000E+00
  0.00000000E+00  0.00000000E+00  0.00000000E+00
  0.00000000E+00  0.00000000E+00  0.00000000E+00
  0.00000000E+00  0.00000000E+00  0.00000000E+00
  0.00000000E+00  0.00000000E+00  0.00000000E+00
  0.00000000E+00  0.00000000E+00  0.00000000E+00
  0.00000000E+00  0.00000000E+00  0.00000000E+00
  0.00000000E+00  0.00000000E+00  0.00000000E+00
  0.00000000E+00  0.00000000E+00  0.00000000E+00
  0.00000000E+00  0.00000000E+00  0.00000000E+00
  0.00000000E+00  0.00000000E+00  0.00000000E+00
  0.00000000E+00  0.00000000E+00  0.00000000E+00
  0.00000000E+00  0.00000000E+00  0.00000000E+00
  0.00000000E+00  0.00000000E+00  0.00000000E+00
  0.00000000E+00  0.00000000E+00  0.00000000E+00
  0.00000000E+00  0.00000000E+00  0.00000000E+00
  0.00000000E+00  0.00000000E+00  0.00000000E+00
  0.00000000E+00  0.00000000E+00  0.00000000E+00
  0.00000000E+00  0.00000000E+00  0.00000000E+00
  0.00000000E+00  0.00000000E+00  0.00000000E+00
  0.00000000E+00  0.00000000E+00  0.00000000E+00
  0.00000000E+00  0.00000000E+00  0.00000000E+00
  0.00000000E+00  0.00000000E+00  0.00000000E+00
  0.00000000E+00  0.00000000E+00  0.00000000E+00
  0.00000000E+00  0.00000000E+00  0.00000000E+00
  0.00000000E+00  0.00000000E+00  0.00000000E+00
  0.00000000E+00  0.00000000E+00  0.00000000E+00
  0.00000000E+00  0.00000000E+00  0.00000000E+00
  0.00000000E+00  0.00000000E+00  0.00000000E+00
  0.00000000E+00  0.00000000E+00  0.00000000E+00
  0.00000000E+00  0.00000000E+00  0.00000000E+00
  0.00000000E+00  0.00000000E+00  0.00000000E+00
  0.00000000E+00  0.00000000E+00  0.00000000E+00
  0.00000000E+00  0.00000000E+00  0.00000000E+00
  0.00000000E+00  0.00000000E+00  0.00000000E+00
  0.00000000E+00  0.00000000E+00  0.00000000E+00
  0.00000000E+00  0.00000000E+00  0.00000000E+00
  0.00000000E+00  0.00000000E+00  0.00000000E+00
  0.00000000E+00  0.00000000E+00  0.00000000E+00
  0.00000000E+00  0.00000000E+00  0.00000000E+00
  0.00000000E+00  0.00000000E+00  0.00000000E+00
  0.00000000E+00  0.00000000E+00  0.00000000E+00
  0.00000000E+00  0.00000000E+00  0.00000000E+00
  0.00000000E+00  0.00000000E+00  0.00000000E+00
  0.00000000E+00  0.00000000E+00  0.00000000E+00
  0.00000000E+00  0.00000000E+00  0.00000000E+00
  0.00000000E+00  0.00000000E+00  0.00000000E+00
  0.00000000E+00  0.00000000E+00  0.00000000E+00
  0.00000000E+00  0.00000000E+00  0.00000000E+00
  0.00000000E+00  0.00000000E+00  0.00000000E+00
  0.00000000E+00  0.00000000E+00  0.00000000E+00
  0.00000000E+00  0.00000000E+00  0.00000000E+00
  0.00000000E+00  0.00000000E+00  0.00000000E+00
  0.00000000E+00  0.00000000E+00  0.00000000E+00
  0.00000000E+00  0.00000000E+00  0.00000000E+00
  0.00000000E+00  0.00000000E+00  0.00000000E+00
  0.00000000E+00  0.00000000E+00  0.00000000E+00
  0.00000000E+00  0.00000000E+00  0.00000000E+00
  0.00000000E+00  0.00000000E+00  0.00000000E+00
  0.00000000E+00  0.00000000E+00  0.00000000E+00
  0.00000000E+00  0.00000000E+00  0.00000000E+00
  0.00000000E+00  0.00000000E+00  0.00000000E+00
  0.00000000E+00  0.00000000E+00  0.00000000E+00
  0.00000000E+00  0.00000000E+00  0.00000000E+00
  0.00000000E+00  0.00000000E+00  0.00000000E+00
  0.00000000E+00  0.00000000E+00  0.00000000E+00
  0.00000000E+00  0.00000000E+00  0.00000000E+00
  0.00000000E+00  0.00000000E+00  0.00000000E+00
  0.00000000E+00  0.00000000E+00  0.00000000E+00
  0.00000000E+00  0.00000000E+00  0.00000000E+00
  0.00000000E+00  0.00000000E+00  0.00000000E+00
  0.00000000E+00  0.00000000E+00  0.00000000E+00
  0.00000000E+00  0.00000000E+00  0.00000000E+00
  0.00000000E+00  0.00000000E+00  0.00000000E+00
  0.00000000E+00  0.00000000E+00  0.00000000E+00
  0.00000000E+00  0.00000000E+00  0.00000000E+00
  0.00000000E+00  0.00000000E+00  0.00000000E+00
  0.00000000E+00  0.00000000E+00  0.00000000E+00
  0.00000000E+00  0.00000000E+00  0.00000000E+00
  0.00000000E+00  0.00000000E+00  0.00000000E+00
  0.00000000E+00  0.00000000E+00  0.00000000E+00
  0.00000000E+00  0.00000000E+00  0.00000000E+00
  0.00000000E+00  0.00000000E+00  0.00000000E+00
  0.00000000E+00  0.00000000E+00  0.00000000E+00
  0.00000000E+00  0.00000000E+00  0.00000000E+00
  0.00000000E+00  0.00000000E+00  0.00000000E+00
  0.00000000E+00  0.00000000E+00  0.00000000E+00
  0.00000000E+00  0.00000000E+00  0.00000000E+00
