Ni  C  H  O                             
   1.00000000000000     
    17.4159994126999997    0.0000000000000000    0.0000000000000000
    -4.9759998320000003    8.6186845275999993    0.0000000000000000
     0.0000000000000000    0.0000000000000000   21.0942993164000008
   Ni   C    H    O 
    84    17    20     6
Selective dynamics
Direct
  0.0011243874392576  0.2502601723637574  0.1885085841915513   T   T   T
 -0.0009237801709654  0.4993637844690931  0.1883005571142280   T   T   T
 -0.0008773977372316  0.7496456574615186  0.1881497256403697   T   T   T
  0.0012629481182368  0.0023340972224503  0.1882997846218217   T   T   T
  0.1467257325355395  0.2548443601491704  0.1948927283680169   T   T   T
  0.1411686844398244  0.5028267738242207  0.1872691656743674   T   T   T
  0.1411917936322300  0.7488528209230395  0.1872750294503307   T   T   T
  0.1405299674692216  0.9948866277788336  0.1880536667815559   T   T   T
  0.2853448877096357  0.2382046599766074  0.1958315745688889   T   T   T
  0.2860638461897092  0.5115687208910493  0.1925110507880706   T   T   T
  0.2846483943846801  0.7540999076275555  0.1865183809504140   T   T   T
  0.2851942864208643  0.9940791808352911  0.1862034612435246   T   T   T
  0.4278143903030500  0.2440706201362121  0.1868225395046353   T   T   T
  0.4261022579496234  0.4968562026787188  0.1930496064416370   T   T   T
  0.4288954984499702  0.7535676778961176  0.1876679093040529   T   T   T
  0.4281161607428645  0.9985590000395630  0.1874339448264026   T   T   T
  0.5716228793657835  0.2456138797378922  0.1914238041686773   T   T   T
  0.5689913704909344  0.5016791780171884  0.1896397633418309   T   T   T
  0.5708884870742149  0.7504145799011974  0.1898814074758926   T   T   T
  0.5708628444489794  0.9960194489408970  0.1869216742036074   T   T   T
  0.7153064710922412  0.2394605569798379  0.1944146963175616   T   T   T
  0.7146289272655744  0.5086539509061818  0.1952455030460386   T   T   T
  0.7164085148120932  0.7565674858298321  0.1867451490914714   T   T   T
  0.7153337388197512  0.9962509218818461  0.1867334572356200   T   T   T
  0.8597779848844973  0.2483638734702348  0.1877894683523620   T   T   T
  0.8544253275776083  0.4999175429806146  0.1959006104736885   T   T   T
  0.8600717526859716  0.7566789553744604  0.1860576547050077   T   T   T
  0.8589539992922796  0.0018713044743690  0.1879610567005640   T   T   T
  0.0968708761089785  0.0874983093900386  0.0951887370633437   T   T   T
  0.0968006304394236  0.3325032441281239  0.0949625611288699   T   T   T
  0.0942790825892752  0.5819428130524266  0.0933338524371583   T   T   T
  0.0947561289850365  0.8339997379714410  0.0935018812234626   T   T   T
  0.2385527410948752  0.0862104820714463  0.0947466913433804   T   T   T
  0.2399548988176636  0.3343946818829837  0.0967807570237755   T   T   T
  0.2383171235162744  0.5814631063457559  0.0937838944283164   T   T   T
  0.2369811200182546  0.8324198092447100  0.0926000629339417   T   T   T
  0.3811419326076671  0.0838403164719135  0.0928822992683552   T   T   T
  0.3802767431801544  0.3336627972483274  0.0948353634949107   T   T   T
  0.3804011522216090  0.5809697305084981  0.0946045411203716   T   T   T
  0.3808865990755116  0.8327762158286376  0.0933540726910177   T   T   T
  0.5246628812563566  0.0857995651189632  0.0939554487021744   T   T   T
  0.5246061049863185  0.3335119993133273  0.0948600817312367   T   T   T
  0.5222572070568817  0.5805714202878801  0.0955522366885720   T   T   T
  0.5234418613256913  0.8329237653281236  0.0938158925806763   T   T   T
  0.6675191415970040  0.0859648678590642  0.0939795127004334   T   T   T
  0.6681461345391715  0.3344654058206414  0.0960946742289407   T   T   T
  0.6662635362599988  0.5811483454690738  0.0948462559149855   T   T   T
  0.6651062220753756  0.8315468869432647  0.0935215876244670   T   T   T
  0.8097477641458258  0.0838753004747128  0.0934167956505292   T   T   T
  0.8087765639759378  0.3340098757872076  0.0959783891723625   T   T   T
  0.8082087421627772  0.5810054003436099  0.0955474745531745   T   T   T
  0.8094431965628016  0.8330843262928602  0.0931716527026605   T   T   T
  0.9532339465024579  0.0842466956275399  0.0939780941835716   T   T   T
  0.9525228892491358  0.3333283516571460  0.0938053567218268   T   T   T
  0.9494388770667090  0.5809488877071453  0.0958709966004669   T   T   T
  0.9529706186157555  0.8339623371768821  0.0931027380280698   T   T   T
  0.0476185721907996  0.1666675060909810  0.0000000084382989   F   F   F
  0.0476185721907996  0.4166675060909810  0.0000000084382989   F   F   F
  0.0476185721907996  0.6666675060909810  0.0000000084382989   F   F   F
  0.0476185721907996  0.9166675060909810  0.0000000084382989   F   F   F
  0.1904757150479455  0.1666675060909810  0.0000000084382989   F   F   F
  0.1904757150479455  0.4166675060909810  0.0000000084382989   F   F   F
  0.1904757150479455  0.6666675060909810  0.0000000084382989   F   F   F
  0.1904757150479455  0.9166675060909810  0.0000000084382989   F   F   F
  0.3333328579050843  0.1666675060909810  0.0000000084382989   F   F   F
  0.3333328579050843  0.4166675060909810  0.0000000084382989   F   F   F
  0.3333328579050843  0.6666675060909810  0.0000000084382989   F   F   F
  0.3333328579050843  0.9166675060909810  0.0000000084382989   F   F   F
  0.4761900007622302  0.1666675060909810  0.0000000084382989   F   F   F
  0.4761900007622302  0.4166675060909810  0.0000000084382989   F   F   F
  0.4761900007622302  0.6666675060909810  0.0000000084382989   F   F   F
  0.4761900007622302  0.9166675060909810  0.0000000084382989   F   F   F
  0.6190471436193690  0.1666675060909810  0.0000000084382989   F   F   F
  0.6190471436193690  0.4166675060909810  0.0000000084382989   F   F   F
  0.6190471436193690  0.6666675060909810  0.0000000084382989   F   F   F
  0.6190471436193690  0.9166675060909810  0.0000000084382989   F   F   F
  0.7619042864765149  0.1666675060909810  0.0000000084382989   F   F   F
  0.7619042864765149  0.4166675060909810  0.0000000084382989   F   F   F
  0.7619042864765149  0.6666675060909810  0.0000000084382989   F   F   F
  0.7619042864765149  0.9166675060909810  0.0000000084382989   F   F   F
  0.9047614293336537  0.1666675060909810  0.0000000084382989   F   F   F
  0.9047614293336537  0.4166675060909810  0.0000000084382989   F   F   F
  0.9047614293336537  0.6666675060909810  0.0000000084382989   F   F   F
  0.9047614293336537  0.9166675060909810  0.0000000084382989   F   F   F
  0.2423372343641836  0.2188917353542674  0.2900329050396695   T   T   T
  0.3374244012852619  0.2944285228173497  0.2860440756537310   T   T   T
  0.3947472786104057  0.4640482435614818  0.2855610642891672   T   T   T
  0.3469990592006085  0.5504542974347434  0.2814225408077271   T   T   T
  0.2515561659217397  0.4751753607240359  0.2841826751124076   T   T   T
  0.1950997474017031  0.3069535189218141  0.2868571909191063   T   T   T
  0.2334224916378324  0.9907681475191520  0.3368132717346519   T   T   T
  0.4740975539074430  0.5354303631301801  0.3311972950085506   T   T   T
  0.5295457899707158  0.4544585257460779  0.3393227441476709   T   T   T
  0.6461915162598344  0.4315302216050592  0.2806056737468973   T   T   T
  0.6040309521654574  0.2632512300332696  0.2835444421258781   T   T   T
  0.7406903016870708  0.5305010280754275  0.2909456506222674   T   T   T
  0.6625614064407277  0.1983558500210087  0.2860103689576236   T   T   T
  0.7986301013424864  0.4643590769986821  0.2877715945554654   T   T   T
  0.7568976447245005  0.2959604734772970  0.2869787146693664   T   T   T
  0.5820432192592435  0.5036889225637599  0.4013876595016298   T   T   T
  0.8571035456742100  0.7656855728551424  0.3391681506178164   T   T   T
  0.3669883022448804  0.2255154674979475  0.3012335189143975   T   T   T
  0.3840164438383993  0.6722418608689047  0.2961087235469278   T   T   T
  0.2209284470443456  0.5414631330987438  0.3008796018095111   T   T   T
  0.0756248510951660  0.1521173561263300  0.3090890221698151   T   T   T
  0.2806349084116364  0.0548139696736917  0.3753038600218835   T   T   T
  0.1802562864991258  0.8786187690648205  0.3539830295469155   T   T   T
  0.2681556660748781  0.9702287979336677  0.2970436481340342   T   T   T
  0.4440885626404779  0.5246393723376861  0.3789007138985274   T   T   T
  0.4857153082083176  0.3275299984392819  0.3390592605865219   T   T   T
  0.5803905497269293  0.7331085389325833  0.3458811399912517   T   T   T
  0.5394063759210540  0.1976867576495040  0.3067234554606761   T   T   T
  0.6339193336014625  0.0774791289212195  0.3009725104816444   T   T   T
  0.8635173799299871  0.5286111916388263  0.3107194958402115   T   T   T
  0.7976953342014028  0.2463876310111520  0.3015303139253910   T   T   T
  0.5356604443387162  0.4734785528061662  0.4413651064009568   T   T   T
  0.6185769910874100  0.4401464602986115  0.4070785394994634   T   T   T
  0.6898813842200836  0.6859840566877032  0.3735737750525105   T   T   T
  0.9002552256578790  0.7931023196730987  0.2968525037247026   T   T   T
  0.8627288908489240  0.8729071862580002  0.3580426055292159   T   T   T
  0.8759707061929053  0.7079335465714416  0.3755154402626084   T   T   T
  0.1189921349107822  0.2566719741729803  0.3238200959254128   T   T   T
  0.1906414280791620  0.0733742819264845  0.3157559410560992   T   T   T
  0.5928491129422198  0.5016988721342357  0.2875776548950449   T   T   T
  0.5292598363586988  0.6965906232554144  0.3169152694264263   T   T   T
  0.6415936886400723  0.6677576137056908  0.4032694666742248   T   T   T
  0.7654714185993986  0.6696296949249569  0.3218720544679436   T   T   T
 
  0.00000000E+00  0.00000000E+00  0.00000000E+00
  0.00000000E+00  0.00000000E+00  0.00000000E+00
  0.00000000E+00  0.00000000E+00  0.00000000E+00
  0.00000000E+00  0.00000000E+00  0.00000000E+00
  0.00000000E+00  0.00000000E+00  0.00000000E+00
  0.00000000E+00  0.00000000E+00  0.00000000E+00
  0.00000000E+00  0.00000000E+00  0.00000000E+00
  0.00000000E+00  0.00000000E+00  0.00000000E+00
  0.00000000E+00  0.00000000E+00  0.00000000E+00
  0.00000000E+00  0.00000000E+00  0.00000000E+00
  0.00000000E+00  0.00000000E+00  0.00000000E+00
  0.00000000E+00  0.00000000E+00  0.00000000E+00
  0.00000000E+00  0.00000000E+00  0.00000000E+00
  0.00000000E+00  0.00000000E+00  0.00000000E+00
  0.00000000E+00  0.00000000E+00  0.00000000E+00
  0.00000000E+00  0.00000000E+00  0.00000000E+00
  0.00000000E+00  0.00000000E+00  0.00000000E+00
  0.00000000E+00  0.00000000E+00  0.00000000E+00
  0.00000000E+00  0.00000000E+00  0.00000000E+00
  0.00000000E+00  0.00000000E+00  0.00000000E+00
  0.00000000E+00  0.00000000E+00  0.00000000E+00
  0.00000000E+00  0.00000000E+00  0.00000000E+00
  0.00000000E+00  0.00000000E+00  0.00000000E+00
  0.00000000E+00  0.00000000E+00  0.00000000E+00
  0.00000000E+00  0.00000000E+00  0.00000000E+00
  0.00000000E+00  0.00000000E+00  0.00000000E+00
  0.00000000E+00  0.00000000E+00  0.00000000E+00
  0.00000000E+00  0.00000000E+00  0.00000000E+00
  0.00000000E+00  0.00000000E+00  0.00000000E+00
  0.00000000E+00  0.00000000E+00  0.00000000E+00
  0.00000000E+00  0.00000000E+00  0.00000000E+00
  0.00000000E+00  0.00000000E+00  0.00000000E+00
  0.00000000E+00  0.00000000E+00  0.00000000E+00
  0.00000000E+00  0.00000000E+00  0.00000000E+00
  0.00000000E+00  0.00000000E+00  0.00000000E+00
  0.00000000E+00  0.00000000E+00  0.00000000E+00
  0.00000000E+00  0.00000000E+00  0.00000000E+00
  0.00000000E+00  0.00000000E+00  0.00000000E+00
  0.00000000E+00  0.00000000E+00  0.00000000E+00
  0.00000000E+00  0.00000000E+00  0.00000000E+00
  0.00000000E+00  0.00000000E+00  0.00000000E+00
  0.00000000E+00  0.00000000E+00  0.00000000E+00
  0.00000000E+00  0.00000000E+00  0.00000000E+00
  0.00000000E+00  0.00000000E+00  0.00000000E+00
  0.00000000E+00  0.00000000E+00  0.00000000E+00
  0.00000000E+00  0.00000000E+00  0.00000000E+00
  0.00000000E+00  0.00000000E+00  0.00000000E+00
  0.00000000E+00  0.00000000E+00  0.00000000E+00
  0.00000000E+00  0.00000000E+00  0.00000000E+00
  0.00000000E+00  0.00000000E+00  0.00000000E+00
  0.00000000E+00  0.00000000E+00  0.00000000E+00
  0.00000000E+00  0.00000000E+00  0.00000000E+00
  0.00000000E+00  0.00000000E+00  0.00000000E+00
  0.00000000E+00  0.00000000E+00  0.00000000E+00
  0.00000000E+00  0.00000000E+00  0.00000000E+00
  0.00000000E+00  0.00000000E+00  0.00000000E+00
  0.00000000E+00  0.00000000E+00  0.00000000E+00
  0.00000000E+00  0.00000000E+00  0.00000000E+00
  0.00000000E+00  0.00000000E+00  0.00000000E+00
  0.00000000E+00  0.00000000E+00  0.00000000E+00
  0.00000000E+00  0.00000000E+00  0.00000000E+00
  0.00000000E+00  0.00000000E+00  0.00000000E+00
  0.00000000E+00  0.00000000E+00  0.00000000E+00
  0.00000000E+00  0.00000000E+00  0.00000000E+00
  0.00000000E+00  0.00000000E+00  0.00000000E+00
  0.00000000E+00  0.00000000E+00  0.00000000E+00
  0.00000000E+00  0.00000000E+00  0.00000000E+00
  0.00000000E+00  0.00000000E+00  0.00000000E+00
  0.00000000E+00  0.00000000E+00  0.00000000E+00
  0.00000000E+00  0.00000000E+00  0.00000000E+00
  0.00000000E+00  0.00000000E+00  0.00000000E+00
  0.00000000E+00  0.00000000E+00  0.00000000E+00
  0.00000000E+00  0.00000000E+00  0.00000000E+00
  0.00000000E+00  0.00000000E+00  0.00000000E+00
  0.00000000E+00  0.00000000E+00  0.00000000E+00
  0.00000000E+00  0.00000000E+00  0.00000000E+00
  0.00000000E+00  0.00000000E+00  0.00000000E+00
  0.00000000E+00  0.00000000E+00  0.00000000E+00
  0.00000000E+00  0.00000000E+00  0.00000000E+00
  0.00000000E+00  0.00000000E+00  0.00000000E+00
  0.00000000E+00  0.00000000E+00  0.00000000E+00
  0.00000000E+00  0.00000000E+00  0.00000000E+00
  0.00000000E+00  0.00000000E+00  0.00000000E+00
  0.00000000E+00  0.00000000E+00  0.00000000E+00
  0.00000000E+00  0.00000000E+00  0.00000000E+00
  0.00000000E+00  0.00000000E+00  0.00000000E+00
  0.00000000E+00  0.00000000E+00  0.00000000E+00
  0.00000000E+00  0.00000000E+00  0.00000000E+00
  0.00000000E+00  0.00000000E+00  0.00000000E+00
  0.00000000E+00  0.00000000E+00  0.00000000E+00
  0.00000000E+00  0.00000000E+00  0.00000000E+00
  0.00000000E+00  0.00000000E+00  0.00000000E+00
  0.00000000E+00  0.00000000E+00  0.00000000E+00
  0.00000000E+00  0.00000000E+00  0.00000000E+00
  0.00000000E+00  0.00000000E+00  0.00000000E+00
  0.00000000E+00  0.00000000E+00  0.00000000E+00
  0.00000000E+00  0.00000000E+00  0.00000000E+00
  0.00000000E+00  0.00000000E+00  0.00000000E+00
  0.00000000E+00  0.00000000E+00  0.00000000E+00
  0.00000000E+00  0.00000000E+00  0.00000000E+00
  0.00000000E+00  0.00000000E+00  0.00000000E+00
  0.00000000E+00  0.00000000E+00  0.00000000E+00
  0.00000000E+00  0.00000000E+00  0.00000000E+00
  0.00000000E+00  0.00000000E+00  0.00000000E+00
  0.00000000E+00  0.00000000E+00  0.00000000E+00
  0.00000000E+00  0.00000000E+00  0.00000000E+00
  0.00000000E+00  0.00000000E+00  0.00000000E+00
  0.00000000E+00  0.00000000E+00  0.00000000E+00
  0.00000000E+00  0.00000000E+00  0.00000000E+00
  0.00000000E+00  0.00000000E+00  0.00000000E+00
  0.00000000E+00  0.00000000E+00  0.00000000E+00
  0.00000000E+00  0.00000000E+00  0.00000000E+00
  0.00000000E+00  0.00000000E+00  0.00000000E+00
  0.00000000E+00  0.00000000E+00  0.00000000E+00
  0.00000000E+00  0.00000000E+00  0.00000000E+00
  0.00000000E+00  0.00000000E+00  0.00000000E+00
  0.00000000E+00  0.00000000E+00  0.00000000E+00
  0.00000000E+00  0.00000000E+00  0.00000000E+00
  0.00000000E+00  0.00000000E+00  0.00000000E+00
  0.00000000E+00  0.00000000E+00  0.00000000E+00
  0.00000000E+00  0.00000000E+00  0.00000000E+00
  0.00000000E+00  0.00000000E+00  0.00000000E+00
  0.00000000E+00  0.00000000E+00  0.00000000E+00
  0.00000000E+00  0.00000000E+00  0.00000000E+00
  0.00000000E+00  0.00000000E+00  0.00000000E+00
  0.00000000E+00  0.00000000E+00  0.00000000E+00
  0.00000000E+00  0.00000000E+00  0.00000000E+00
