O  C  N  H                              
   1.00000000000000     
    20.0000000000000000    0.0000000000000000    0.0000000000000000
     0.0000000000000000   21.0000000000000000    0.0000000000000000
     0.0000000000000000    0.0000000000000000   22.0000000000000000
   O    C    N    H 
     2     9     2    12
Selective dynamics
Direct
  0.5353032347577338  0.6051212801999287  0.4848526595575074   T   T   T
  0.6485298664055387  0.5879945193671698  0.4918599772298775   T   T   T
  0.3604514914323698  0.3293475656552924  0.4830659306715325   T   T   T
  0.4179106879077316  0.3754345062489693  0.4841967216286583   T   T   T
  0.4842178527153723  0.3545429490833508  0.4855842966855134   T   T   T
  0.5380175521649903  0.3967034375571138  0.4874475421776804   T   T   T
  0.5255711702817932  0.4625928994110562  0.4878527569461113   T   T   T
  0.4598301867834664  0.4850118794809607  0.4860971623989730   T   T   T
  0.4061858139444024  0.4418656365614017  0.4844168081576941   T   T   T
  0.5828908129406493  0.5685747490220535  0.4885459139813287   T   T   T
  0.6569867510574661  0.6561222126674148  0.4904072116202027   T   T   T
  0.3410084828224997  0.4651466579796594  0.4857299539960946   T   T   T
  0.5813636809830330  0.5033904569615667  0.4900762853873650   T   T   T
  0.4938053754466991  0.3033198348439325  0.4853263154759647   T   T   T
  0.5893302286769884  0.3789456957353712  0.4886254514388573   T   T   T
  0.4504639623477930  0.5360500829644921  0.4862407359489385   T   T   T
  0.3050806021010053  0.4367079693832553  0.4677706628756920   T   T   T
  0.3356647132176897  0.5117608664791857  0.4745892237495130   T   T   T
  0.6266988666948771  0.4818165765349899  0.4928050584498374   T   T   T
  0.3254260060671129  0.3382238320459632  0.5208817092321355   T   T   T
  0.3784902813791989  0.2800866094477809  0.4867738556333608   T   T   T
  0.3311511159384773  0.3329197351722684  0.4405855969487895   T   T   T
  0.7110017477350192  0.6639134656659811  0.4941031226349297   T   T   T
  0.6376621976025110  0.6758320630722082  0.4475781260564131   T   T   T
  0.6304373243255872  0.6785633560776713  0.5285470608943217   T   T   T
 
  0.00000000E+00  0.00000000E+00  0.00000000E+00
  0.00000000E+00  0.00000000E+00  0.00000000E+00
  0.00000000E+00  0.00000000E+00  0.00000000E+00
  0.00000000E+00  0.00000000E+00  0.00000000E+00
  0.00000000E+00  0.00000000E+00  0.00000000E+00
  0.00000000E+00  0.00000000E+00  0.00000000E+00
  0.00000000E+00  0.00000000E+00  0.00000000E+00
  0.00000000E+00  0.00000000E+00  0.00000000E+00
  0.00000000E+00  0.00000000E+00  0.00000000E+00
  0.00000000E+00  0.00000000E+00  0.00000000E+00
  0.00000000E+00  0.00000000E+00  0.00000000E+00
  0.00000000E+00  0.00000000E+00  0.00000000E+00
  0.00000000E+00  0.00000000E+00  0.00000000E+00
  0.00000000E+00  0.00000000E+00  0.00000000E+00
  0.00000000E+00  0.00000000E+00  0.00000000E+00
  0.00000000E+00  0.00000000E+00  0.00000000E+00
  0.00000000E+00  0.00000000E+00  0.00000000E+00
  0.00000000E+00  0.00000000E+00  0.00000000E+00
  0.00000000E+00  0.00000000E+00  0.00000000E+00
  0.00000000E+00  0.00000000E+00  0.00000000E+00
  0.00000000E+00  0.00000000E+00  0.00000000E+00
  0.00000000E+00  0.00000000E+00  0.00000000E+00
  0.00000000E+00  0.00000000E+00  0.00000000E+00
  0.00000000E+00  0.00000000E+00  0.00000000E+00
  0.00000000E+00  0.00000000E+00  0.00000000E+00
