Ru  H  C                                
   1.00000000000000     
    18.7899500611000008    0.0000000000000000    0.0000000000000000
     9.3949750305999995   16.2725740887999990    0.0000000000000000
     0.0000000000000000    0.0000000000000000   20.0000000000000000
   Ru   H    C 
   192    26    12
Selective dynamics
Direct
  0.0000000000019114  0.0833333333312822  0.0000000000000000   F   F   F
  0.1666666666657761  0.0000000000000000  0.0000000000000000   F   F   F
  0.0833333333309767  0.1666666666687178  0.0000000000000000   F   F   F
  0.2500000000032401  0.0833333333312822  0.0000000000000000   F   F   F
  0.4166666666671119  0.0000000000000000  0.0000000000000000   F   F   F
  0.3333333333323125  0.1666666666687178  0.0000000000000000   F   F   F
  0.9999999999992468  0.3333333333312822  0.0000000000000000   F   F   F
  0.1666666666684407  0.2500000000000000  0.0000000000000000   F   F   F
  0.0833333333336412  0.4166666666687178  0.0000000000000000   F   F   F
  0.2500000000005826  0.3333333333312822  0.0000000000000000   F   F   F
  0.4166666666697694  0.2500000000000000  0.0000000000000000   F   F   F
  0.3333333333349700  0.4166666666687178  0.0000000000000000   F   F   F
  0.0000000000000000  0.0000000000000000  0.1071978058550016   F   F   F
  0.0833333333321420  0.0833333333312822  0.1071978058550016   F   F   F
  0.1666666666665293  0.1666666666687178  0.1071978058550016   F   F   F
  0.2500000000013287  0.0000000000000000  0.1071978058550016   F   F   F
  0.3333333333334707  0.0833333333312822  0.1071978058550016   F   F   F
  0.4166666666678580  0.1666666666687178  0.1071978058550016   F   F   F
  0.9999999999973355  0.2500000000000000  0.1071978058550016   F   F   F
  0.0833333333347994  0.3333333333312822  0.1071978058550016   F   F   F
  0.1666666666638719  0.4166666666687178  0.1071978058550016   F   F   F
  0.2499999999986713  0.2500000000000000  0.1071978058550016   F   F   F
  0.3333333333361281  0.3333333333312822  0.1071978058550016   F   F   F
  0.4166666666652006  0.4166666666687178  0.1071978058550016   F   F   F
  0.0000063769383468  0.0834207902267761  0.2135086323055240   T   T   T
  0.1665877693199422  0.0000705941165720  0.2135371026087195   T   T   T
  0.0833374556395137  0.1666909190105182  0.2135751226354708   T   T   T
  0.2500150834762029  0.0833597041812296  0.2135817912986593   T   T   T
  0.4165948253373963  0.0000827082271856  0.2134959443242951   T   T   T
  0.3332842316359505  0.1667671748061608  0.2135858749342103   T   T   T
  0.0000879709786912  0.3332812779689394  0.2135348822618257   T   T   T
  0.1667008051722848  0.2500383816354332  0.2135893611533123   T   T   T
  0.0833861845615678  0.4166143665539801  0.2136647561454390   T   T   T
  0.2499920710443094  0.3333475994658950  0.2136935357325278   T   T   T
  0.4165681153488433  0.2501126951417091  0.2136562546255702   T   T   T
  0.3332978705793548  0.4167062053963916  0.2137016409688332   T   T   T
 -0.0000547939531521  0.0000960216359675  0.3163989544946734   T   T   T
  0.0833214520868902  0.0834134703107553  0.3165448547682570   T   T   T
  0.1666262361982942  0.1666726427714962  0.3165337176148185   T   T   T
  0.2499449753310008  0.0001472699386060  0.3166281428116147   T   T   T
  0.3333173269695050  0.0833863502689971  0.3165353987799047   T   T   T
  0.4167297938532779  0.1666255758790642  0.3164843759476418   T   T   T
  0.0000937025175646  0.2499200662760597  0.3165742141383498   T   T   T
  0.0832533902923182  0.3333023993292817  0.3164657671108486   T   T   T
  0.1664074498338964  0.4168146875503255  0.3167970872001622   T   T   T
  0.2499964777903931  0.2498339344713696  0.3167840009428843   T   T   T
  0.3336355949374804  0.3328660251774236  0.3166662028319594   T   T   T
  0.4170677632480337  0.4159984264736548  0.3166402919875675   T   T   T
  0.0000000000019114  0.5833333333312822  0.0000000000000000   F   F   F
  0.1666666666657761  0.5000000000000000  0.0000000000000000   F   F   F
  0.0833333333309767  0.6666666666687178  0.0000000000000000   F   F   F
  0.2500000000032401  0.5833333333312822  0.0000000000000000   F   F   F
  0.4166666666671119  0.5000000000000000  0.0000000000000000   F   F   F
  0.3333333333323054  0.6666666666687178  0.0000000000000000   F   F   F
  0.9999999999992468  0.8333333333312822  0.0000000000000000   F   F   F
  0.1666666666684407  0.7500000000000000  0.0000000000000000   F   F   F
  0.0833333333336412  0.9166666666687178  0.0000000000000000   F   F   F
  0.2500000000005826  0.8333333333312822  0.0000000000000000   F   F   F
  0.4166666666644474  0.7500000000000000  0.0000000000000000   F   F   F
  0.3333333333296480  0.9166666666687178  0.0000000000000000   F   F   F
  0.0000000000000000  0.5000000000000000  0.1071978058550016   F   F   F
  0.0833333333321420  0.5833333333312822  0.1071978058550016   F   F   F
  0.1666666666665293  0.6666666666687178  0.1071978058550016   F   F   F
  0.2500000000013287  0.5000000000000000  0.1071978058550016   F   F   F
  0.3333333333334707  0.5833333333312822  0.1071978058550016   F   F   F
  0.4166666666678580  0.6666666666687178  0.1071978058550016   F   F   F
  0.9999999999973355  0.7500000000000000  0.1071978058550016   F   F   F
  0.0833333333347994  0.8333333333312822  0.1071978058550016   F   F   F
  0.1666666666638719  0.9166666666687178  0.1071978058550016   F   F   F
  0.2499999999986713  0.7500000000000000  0.1071978058550016   F   F   F
  0.3333333333361281  0.8333333333312822  0.1071978058550016   F   F   F
  0.4166666666652006  0.9166666666687178  0.1071978058550016   F   F   F
  0.0000227390800035  0.5834292839330540  0.2134323086763622   T   T   T
  0.1666245787335598  0.5001047646446064  0.2136598140328472   T   T   T
  0.0832959824072219  0.6666937944768025  0.2135568641709338   T   T   T
  0.2499789677743829  0.5834047922477725  0.2136791511525627   T   T   T
  0.4166097637380664  0.5000142223164887  0.2136376112269932   T   T   T
  0.3333645773341092  0.6667241854985153  0.2136215838999847   T   T   T
 -0.0001114668297789  0.8334485030739880  0.2135020606676165   T   T   T
  0.1666086651437748  0.7500427142344970  0.2135203188325208   T   T   T
  0.0833097716808255  0.9167079088300920  0.2134851705644573   T   T   T
  0.2499162163869448  0.8334124579359543  0.2135262966356252   T   T   T
  0.4167131968140250  0.7500560783502210  0.2136724529650420   T   T   T
  0.3332812173991524  0.9167415648894262  0.2135430218526921   T   T   T
  0.9996727906645868  0.5002439481659713  0.3163427349126623   T   T   T
  0.0826976892858761  0.5839252326940633  0.3164200331800988   T   T   T
  0.1660825636968328  0.6673509334460013  0.3164218426835683   T   T   T
  0.2498642971613815  0.5004243945559878  0.3169319022481423   T   T   T
  0.3331049674895060  0.5837824831623566  0.3166502227644239   T   T   T
  0.4162303927075303  0.6673161500603612  0.3165294758463288   T   T   T
 -0.0000503920532315  0.7501258751192542  0.3165947965865712   T   T   T
  0.0832050361065503  0.8334514050974213  0.3164574334568176   T   T   T
  0.1665193036976788  0.9168373677979206  0.3164601757420096   T   T   T
  0.2494036670946959  0.7506500105663766  0.3164273410932948   T   T   T
  0.3331036052431989  0.8335820228174446  0.3164598684797036   T   T   T
  0.4165669374285380  0.9168452238894679  0.3164599622713691   T   T   T
  0.5000000000045688  0.0833333333312822  0.0000000000000000   F   F   F
  0.6666666666684407  0.0000000000000000  0.0000000000000000   F   F   F
  0.5833333333336412  0.1666666666687178  0.0000000000000000   F   F   F
  0.7500000000005826  0.0833333333312822  0.0000000000000000   F   F   F
  0.9166666666697694  0.0000000000000000  0.0000000000000000   F   F   F
  0.8333333333349700  0.1666666666687178  0.0000000000000000   F   F   F
  0.5000000000019114  0.3333333333312822  0.0000000000000000   F   F   F
  0.6666666666657761  0.2500000000000000  0.0000000000000000   F   F   F
  0.5833333333309767  0.4166666666687178  0.0000000000000000   F   F   F
  0.7500000000032401  0.3333333333312822  0.0000000000000000   F   F   F
  0.9166666666671119  0.2500000000000000  0.0000000000000000   F   F   F
  0.8333333333323054  0.4166666666687178  0.0000000000000000   F   F   F
  0.5000000000026574  0.0000000000000000  0.1071978058550016   F   F   F
  0.5833333333347994  0.0833333333312822  0.1071978058550016   F   F   F
  0.6666666666691938  0.1666666666687178  0.1071978058550016   F   F   F
  0.7500000000039933  0.0000000000000000  0.1071978058550016   F   F   F
  0.8333333333361281  0.0833333333312822  0.1071978058550016   F   F   F
  0.9166666666652006  0.1666666666687178  0.1071978058550016   F   F   F
  0.5000000000000000  0.2500000000000000  0.1071978058550016   F   F   F
  0.5833333333374640  0.3333333333312822  0.1071978058550016   F   F   F
  0.6666666666665293  0.4166666666687178  0.1071978058550016   F   F   F
  0.7500000000013287  0.2500000000000000  0.1071978058550016   F   F   F
  0.8333333333334707  0.3333333333312822  0.1071978058550016   F   F   F
  0.9166666666678580  0.4166666666687178  0.1071978058550016   F   F   F
  0.5000073434213077  0.0834584156987443  0.2134663383962203   T   T   T
  0.6666525569149012 -0.0000119204289178  0.2135010976259455   T   T   T
  0.5833854406967958  0.1666408831556150  0.2135516620689789   T   T   T
  0.7500199897883857  0.0833061115188204  0.2135479516660377   T   T   T
  0.9166347034736844  0.0000060182832541  0.2135089874783480   T   T   T
  0.8333965269767102  0.1666529602278607  0.2134759951784699   T   T   T
  0.4999474958912390  0.3334302260835196  0.2135288713521606   T   T   T
  0.6666811104811233  0.2500113373048218  0.2135947877975291   T   T   T
  0.5833695617008643  0.4166481063808515  0.2134633710587875   T   T   T
  0.7499878972866092  0.3332566088736624  0.2136413202740317   T   T   T
  0.9167068836011418  0.2499770283452098  0.2135199722937695   T   T   T
  0.8332869157211739  0.4166903643707451  0.2136220189722177   T   T   T
  0.4998865505257946  0.0001546341109350  0.3163821958523313   T   T   T
  0.5833214619056745  0.0832822744077993  0.3164841080332464   T   T   T
  0.6666749840137981  0.1666816999648607  0.3165566844223684   T   T   T
  0.7500077255653540  0.0000191105723631  0.3166077544142755   T   T   T
  0.8333475175667038  0.0832855452893835  0.3164784220347023   T   T   T
  0.9167274270825095  0.1665848727849737  0.3164706862681682   T   T   T
  0.5002079200174581  0.2498466039317224  0.3165374291788544   T   T   T
  0.5836348604396256  0.3331136936701227  0.3164290411235056   T   T   T
  0.6671443587366267  0.4161572726613029  0.3164057273277745   T   T   T
  0.7500611127434085  0.2499346775625875  0.3166273336024494   T   T   T
  0.8333455992256370  0.3332986417119082  0.3165031265727724   T   T   T
  0.9167364504468997  0.4167085056991395  0.3164341227249921   T   T   T
  0.4999999999992468  0.5833333333312822  0.0000000000000000   F   F   F
  0.6666666666684407  0.5000000000000000  0.0000000000000000   F   F   F
  0.5833333333336412  0.6666666666687178  0.0000000000000000   F   F   F
  0.7500000000005826  0.5833333333312822  0.0000000000000000   F   F   F
  0.9166666666697694  0.5000000000000000  0.0000000000000000   F   F   F
  0.8333333333349700  0.6666666666687178  0.0000000000000000   F   F   F
  0.5000000000019114  0.8333333333312822  0.0000000000000000   F   F   F
  0.6666666666657761  0.7500000000000000  0.0000000000000000   F   F   F
  0.5833333333309767  0.9166666666687178  0.0000000000000000   F   F   F
  0.7500000000032401  0.8333333333312822  0.0000000000000000   F   F   F
  0.9166666666671119  0.7500000000000000  0.0000000000000000   F   F   F
  0.8333333333323054  0.9166666666687178  0.0000000000000000   F   F   F
  0.5000000000026574  0.5000000000000000  0.1071978058550016   F   F   F
  0.5833333333347994  0.5833333333312822  0.1071978058550016   F   F   F
  0.6666666666638719  0.6666666666687178  0.1071978058550016   F   F   F
  0.7499999999986713  0.5000000000000000  0.1071978058550016   F   F   F
  0.8333333333361281  0.5833333333312822  0.1071978058550016   F   F   F
  0.9166666666652006  0.6666666666687178  0.1071978058550016   F   F   F
  0.5000000000000000  0.7500000000000000  0.1071978058550016   F   F   F
  0.5833333333321420  0.8333333333312822  0.1071978058550016   F   F   F
  0.6666666666665293  0.9166666666687178  0.1071978058550016   F   F   F
  0.7500000000013287  0.7500000000000000  0.1071978058550016   F   F   F
  0.8333333333334707  0.8333333333312822  0.1071978058550016   F   F   F
  0.9166666666678580  0.9166666666687178  0.1071978058550016   F   F   F
  0.4999814870889560  0.5833888231508801  0.2137488640749249   T   T   T
  0.6666088403293572  0.5000375139324110  0.2134679504987869   T   T   T
  0.5831962125413803  0.6667362324566138  0.2137660287409611   T   T   T
  0.7500015772729175  0.5833152275923181  0.2135859405523819   T   T   T
  0.9166392414291491  0.5000545164328614  0.2135360784762083   T   T   T
  0.8332819191597352  0.6666603861460765  0.2134763635674973   T   T   T
  0.5000306011403517  0.8333540275686276  0.2135777785222344   T   T   T
  0.6667414836178980  0.7499548809516854  0.2138133222581843   T   T   T
  0.5833485053445665  0.9166073241242488  0.2135595652468422   T   T   T
  0.7499956261741727  0.8333053192100811  0.2135976150748147   T   T   T
  0.9166309162462902  0.7500754935360401  0.2135715174472815   T   T   T
  0.8332938352293721  0.9167302948495240  0.2135751911314391   T   T   T
  0.5003229881801378  0.4993480368616404  0.3166286181680442   T   T   T
  0.5834593188783511  0.5829479521353752  0.3169312236277109   T   T   T
  0.6669692115743937  0.6666612267611457  0.3170673912728182   T   T   T
  0.7506617551760016  0.4992547192988225  0.3164337122756464   T   T   T
  0.8335151490625246  0.5832541089046822  0.3164349129736944   T   T   T
  0.9166735931844365  0.6666635114848181  0.3164975857840444   T   T   T
  0.4994763979282028  0.7507171040220871  0.3165546006704938   T   T   T
  0.5832643683498424  0.8337128540597745  0.3165962924856165   T   T   T
  0.6666694468209781  0.9166961164205264  0.3164998765303931   T   T   T
  0.7504073437411121  0.7500607472355681  0.3165711432287791   T   T   T
  0.8333046940571560  0.8334043936080960  0.3165469390943143   T   T   T
  0.9165834820697792  0.9167244394020642  0.3165281777358424   T   T   T
  0.2208357464186158  0.3061668803184747  0.5510298370861191   T   T   T
  0.2341221086044360  0.2855044651911832  0.4635986213741802   T   T   T
  0.1334542311457621  0.3429356844140723  0.4975250080333972   T   T   T
  0.1593612509658643  0.4586039588190640  0.5263655183196649   T   T   T
  0.1722622088010938  0.4375032814948354  0.4400679643921200   T   T   T
  0.3236465127712743  0.3554595990036054  0.4527112680097833   T   T   T
  0.3154493543263462  0.3682250353760588  0.5404620395112076   T   T   T
  0.2490694069672013  0.5226691586387535  0.5246063083027971   T   T   T
  0.2585190175913378  0.5084853476708932  0.4373230527380866   T   T   T
  0.4106848091433501  0.4276746055513295  0.4453095838375477   T   T   T
  0.4065022345577057  0.4329362590888377  0.5333665499047050   T   T   T
  0.3384523582468991  0.5881202045071470  0.5270856071553942   T   T   T
  0.3412103249933586  0.5826257350241714  0.4391098121884549   T   T   T
  0.4935826995275780  0.5035671113880580  0.4387505526527120   T   T   T
  0.4969202386835695  0.4990662705307543  0.5267923220062052   T   T   T
  0.4281854467060082  0.6541951730283325  0.5319849492359371   T   T   T
  0.4226747450541749  0.6589223155845692  0.4440185773467515   T   T   T
  0.5745710928167257  0.5806900880577162  0.4342334278252483   T   T   T
  0.5860752618092764  0.5658592628871655  0.5213930336507403   T   T   T
  0.5170120741667142  0.7204591628187055  0.5379582379032968   T   T   T
  0.5063491934360664  0.7340858025016841  0.4504427956983748   T   T   T
  0.6573938310661974  0.6561314796808342  0.4350445773520324   T   T   T
  0.6734004304407003  0.6335048541567168  0.5209749394225622   T   T   T
  0.5913312043206871  0.8083629998309131  0.4604725863567585   T   T   T
  0.6935380465456762  0.7529187236127319  0.4918064910097175   T   T   T
  0.6085059367744972  0.7858878307608340  0.5474609411183698   T   T   T
  0.1964669033203094  0.3322589725264338  0.5013170879662141   T   T   T
  0.1991955766002941  0.4110947513316241  0.4899790705376630   T   T   T
  0.2858243436730727  0.3987176724456042  0.4929749422738537   T   T   T
  0.2880758649319481  0.4783715659391075  0.4858310876230360   T   T   T
  0.3741530235377197  0.4673660858748228  0.4879444906525362   T   T   T
  0.3746710443995970  0.5482436358664201  0.4850659862735670   T   T   T
  0.4603394041966507  0.5383549360982234  0.4846493869872522   T   T   T
  0.4602004743698162  0.6196050903596843  0.4865189111778787   T   T   T
  0.5456219576282737  0.6101178126320500  0.4832102607827001   T   T   T
  0.5459590823283664  0.6907714910048683  0.4900517352845251   T   T   T
  0.6313415974648789  0.6812160088230441  0.4856847488368157   T   T   T
  0.6315294059366019  0.7612958203395676  0.4971148013418591   T   T   T
 
  0.00000000E+00  0.00000000E+00  0.00000000E+00
  0.00000000E+00  0.00000000E+00  0.00000000E+00
  0.00000000E+00  0.00000000E+00  0.00000000E+00
  0.00000000E+00  0.00000000E+00  0.00000000E+00
  0.00000000E+00  0.00000000E+00  0.00000000E+00
  0.00000000E+00  0.00000000E+00  0.00000000E+00
  0.00000000E+00  0.00000000E+00  0.00000000E+00
  0.00000000E+00  0.00000000E+00  0.00000000E+00
  0.00000000E+00  0.00000000E+00  0.00000000E+00
  0.00000000E+00  0.00000000E+00  0.00000000E+00
  0.00000000E+00  0.00000000E+00  0.00000000E+00
  0.00000000E+00  0.00000000E+00  0.00000000E+00
  0.00000000E+00  0.00000000E+00  0.00000000E+00
  0.00000000E+00  0.00000000E+00  0.00000000E+00
  0.00000000E+00  0.00000000E+00  0.00000000E+00
  0.00000000E+00  0.00000000E+00  0.00000000E+00
  0.00000000E+00  0.00000000E+00  0.00000000E+00
  0.00000000E+00  0.00000000E+00  0.00000000E+00
  0.00000000E+00  0.00000000E+00  0.00000000E+00
  0.00000000E+00  0.00000000E+00  0.00000000E+00
  0.00000000E+00  0.00000000E+00  0.00000000E+00
  0.00000000E+00  0.00000000E+00  0.00000000E+00
  0.00000000E+00  0.00000000E+00  0.00000000E+00
  0.00000000E+00  0.00000000E+00  0.00000000E+00
  0.00000000E+00  0.00000000E+00  0.00000000E+00
  0.00000000E+00  0.00000000E+00  0.00000000E+00
  0.00000000E+00  0.00000000E+00  0.00000000E+00
  0.00000000E+00  0.00000000E+00  0.00000000E+00
  0.00000000E+00  0.00000000E+00  0.00000000E+00
  0.00000000E+00  0.00000000E+00  0.00000000E+00
  0.00000000E+00  0.00000000E+00  0.00000000E+00
  0.00000000E+00  0.00000000E+00  0.00000000E+00
  0.00000000E+00  0.00000000E+00  0.00000000E+00
  0.00000000E+00  0.00000000E+00  0.00000000E+00
  0.00000000E+00  0.00000000E+00  0.00000000E+00
  0.00000000E+00  0.00000000E+00  0.00000000E+00
  0.00000000E+00  0.00000000E+00  0.00000000E+00
  0.00000000E+00  0.00000000E+00  0.00000000E+00
  0.00000000E+00  0.00000000E+00  0.00000000E+00
  0.00000000E+00  0.00000000E+00  0.00000000E+00
  0.00000000E+00  0.00000000E+00  0.00000000E+00
  0.00000000E+00  0.00000000E+00  0.00000000E+00
  0.00000000E+00  0.00000000E+00  0.00000000E+00
  0.00000000E+00  0.00000000E+00  0.00000000E+00
  0.00000000E+00  0.00000000E+00  0.00000000E+00
  0.00000000E+00  0.00000000E+00  0.00000000E+00
  0.00000000E+00  0.00000000E+00  0.00000000E+00
  0.00000000E+00  0.00000000E+00  0.00000000E+00
  0.00000000E+00  0.00000000E+00  0.00000000E+00
  0.00000000E+00  0.00000000E+00  0.00000000E+00
  0.00000000E+00  0.00000000E+00  0.00000000E+00
  0.00000000E+00  0.00000000E+00  0.00000000E+00
  0.00000000E+00  0.00000000E+00  0.00000000E+00
  0.00000000E+00  0.00000000E+00  0.00000000E+00
  0.00000000E+00  0.00000000E+00  0.00000000E+00
  0.00000000E+00  0.00000000E+00  0.00000000E+00
  0.00000000E+00  0.00000000E+00  0.00000000E+00
  0.00000000E+00  0.00000000E+00  0.00000000E+00
  0.00000000E+00  0.00000000E+00  0.00000000E+00
  0.00000000E+00  0.00000000E+00  0.00000000E+00
  0.00000000E+00  0.00000000E+00  0.00000000E+00
  0.00000000E+00  0.00000000E+00  0.00000000E+00
  0.00000000E+00  0.00000000E+00  0.00000000E+00
  0.00000000E+00  0.00000000E+00  0.00000000E+00
  0.00000000E+00  0.00000000E+00  0.00000000E+00
  0.00000000E+00  0.00000000E+00  0.00000000E+00
  0.00000000E+00  0.00000000E+00  0.00000000E+00
  0.00000000E+00  0.00000000E+00  0.00000000E+00
  0.00000000E+00  0.00000000E+00  0.00000000E+00
  0.00000000E+00  0.00000000E+00  0.00000000E+00
  0.00000000E+00  0.00000000E+00  0.00000000E+00
  0.00000000E+00  0.00000000E+00  0.00000000E+00
  0.00000000E+00  0.00000000E+00  0.00000000E+00
  0.00000000E+00  0.00000000E+00  0.00000000E+00
  0.00000000E+00  0.00000000E+00  0.00000000E+00
  0.00000000E+00  0.00000000E+00  0.00000000E+00
  0.00000000E+00  0.00000000E+00  0.00000000E+00
  0.00000000E+00  0.00000000E+00  0.00000000E+00
  0.00000000E+00  0.00000000E+00  0.00000000E+00
  0.00000000E+00  0.00000000E+00  0.00000000E+00
  0.00000000E+00  0.00000000E+00  0.00000000E+00
  0.00000000E+00  0.00000000E+00  0.00000000E+00
  0.00000000E+00  0.00000000E+00  0.00000000E+00
  0.00000000E+00  0.00000000E+00  0.00000000E+00
  0.00000000E+00  0.00000000E+00  0.00000000E+00
  0.00000000E+00  0.00000000E+00  0.00000000E+00
  0.00000000E+00  0.00000000E+00  0.00000000E+00
  0.00000000E+00  0.00000000E+00  0.00000000E+00
  0.00000000E+00  0.00000000E+00  0.00000000E+00
  0.00000000E+00  0.00000000E+00  0.00000000E+00
  0.00000000E+00  0.00000000E+00  0.00000000E+00
  0.00000000E+00  0.00000000E+00  0.00000000E+00
  0.00000000E+00  0.00000000E+00  0.00000000E+00
  0.00000000E+00  0.00000000E+00  0.00000000E+00
  0.00000000E+00  0.00000000E+00  0.00000000E+00
  0.00000000E+00  0.00000000E+00  0.00000000E+00
  0.00000000E+00  0.00000000E+00  0.00000000E+00
  0.00000000E+00  0.00000000E+00  0.00000000E+00
  0.00000000E+00  0.00000000E+00  0.00000000E+00
  0.00000000E+00  0.00000000E+00  0.00000000E+00
  0.00000000E+00  0.00000000E+00  0.00000000E+00
  0.00000000E+00  0.00000000E+00  0.00000000E+00
  0.00000000E+00  0.00000000E+00  0.00000000E+00
  0.00000000E+00  0.00000000E+00  0.00000000E+00
  0.00000000E+00  0.00000000E+00  0.00000000E+00
  0.00000000E+00  0.00000000E+00  0.00000000E+00
  0.00000000E+00  0.00000000E+00  0.00000000E+00
  0.00000000E+00  0.00000000E+00  0.00000000E+00
  0.00000000E+00  0.00000000E+00  0.00000000E+00
  0.00000000E+00  0.00000000E+00  0.00000000E+00
  0.00000000E+00  0.00000000E+00  0.00000000E+00
  0.00000000E+00  0.00000000E+00  0.00000000E+00
  0.00000000E+00  0.00000000E+00  0.00000000E+00
  0.00000000E+00  0.00000000E+00  0.00000000E+00
  0.00000000E+00  0.00000000E+00  0.00000000E+00
  0.00000000E+00  0.00000000E+00  0.00000000E+00
  0.00000000E+00  0.00000000E+00  0.00000000E+00
  0.00000000E+00  0.00000000E+00  0.00000000E+00
  0.00000000E+00  0.00000000E+00  0.00000000E+00
  0.00000000E+00  0.00000000E+00  0.00000000E+00
  0.00000000E+00  0.00000000E+00  0.00000000E+00
  0.00000000E+00  0.00000000E+00  0.00000000E+00
  0.00000000E+00  0.00000000E+00  0.00000000E+00
  0.00000000E+00  0.00000000E+00  0.00000000E+00
  0.00000000E+00  0.00000000E+00  0.00000000E+00
  0.00000000E+00  0.00000000E+00  0.00000000E+00
  0.00000000E+00  0.00000000E+00  0.00000000E+00
  0.00000000E+00  0.00000000E+00  0.00000000E+00
  0.00000000E+00  0.00000000E+00  0.00000000E+00
  0.00000000E+00  0.00000000E+00  0.00000000E+00
  0.00000000E+00  0.00000000E+00  0.00000000E+00
  0.00000000E+00  0.00000000E+00  0.00000000E+00
  0.00000000E+00  0.00000000E+00  0.00000000E+00
  0.00000000E+00  0.00000000E+00  0.00000000E+00
  0.00000000E+00  0.00000000E+00  0.00000000E+00
  0.00000000E+00  0.00000000E+00  0.00000000E+00
  0.00000000E+00  0.00000000E+00  0.00000000E+00
  0.00000000E+00  0.00000000E+00  0.00000000E+00
  0.00000000E+00  0.00000000E+00  0.00000000E+00
  0.00000000E+00  0.00000000E+00  0.00000000E+00
  0.00000000E+00  0.00000000E+00  0.00000000E+00
  0.00000000E+00  0.00000000E+00  0.00000000E+00
  0.00000000E+00  0.00000000E+00  0.00000000E+00
  0.00000000E+00  0.00000000E+00  0.00000000E+00
  0.00000000E+00  0.00000000E+00  0.00000000E+00
  0.00000000E+00  0.00000000E+00  0.00000000E+00
  0.00000000E+00  0.00000000E+00  0.00000000E+00
  0.00000000E+00  0.00000000E+00  0.00000000E+00
  0.00000000E+00  0.00000000E+00  0.00000000E+00
  0.00000000E+00  0.00000000E+00  0.00000000E+00
  0.00000000E+00  0.00000000E+00  0.00000000E+00
  0.00000000E+00  0.00000000E+00  0.00000000E+00
  0.00000000E+00  0.00000000E+00  0.00000000E+00
  0.00000000E+00  0.00000000E+00  0.00000000E+00
  0.00000000E+00  0.00000000E+00  0.00000000E+00
  0.00000000E+00  0.00000000E+00  0.00000000E+00
  0.00000000E+00  0.00000000E+00  0.00000000E+00
  0.00000000E+00  0.00000000E+00  0.00000000E+00
  0.00000000E+00  0.00000000E+00  0.00000000E+00
  0.00000000E+00  0.00000000E+00  0.00000000E+00
  0.00000000E+00  0.00000000E+00  0.00000000E+00
  0.00000000E+00  0.00000000E+00  0.00000000E+00
  0.00000000E+00  0.00000000E+00  0.00000000E+00
  0.00000000E+00  0.00000000E+00  0.00000000E+00
  0.00000000E+00  0.00000000E+00  0.00000000E+00
  0.00000000E+00  0.00000000E+00  0.00000000E+00
  0.00000000E+00  0.00000000E+00  0.00000000E+00
  0.00000000E+00  0.00000000E+00  0.00000000E+00
  0.00000000E+00  0.00000000E+00  0.00000000E+00
  0.00000000E+00  0.00000000E+00  0.00000000E+00
  0.00000000E+00  0.00000000E+00  0.00000000E+00
  0.00000000E+00  0.00000000E+00  0.00000000E+00
  0.00000000E+00  0.00000000E+00  0.00000000E+00
  0.00000000E+00  0.00000000E+00  0.00000000E+00
  0.00000000E+00  0.00000000E+00  0.00000000E+00
  0.00000000E+00  0.00000000E+00  0.00000000E+00
  0.00000000E+00  0.00000000E+00  0.00000000E+00
  0.00000000E+00  0.00000000E+00  0.00000000E+00
  0.00000000E+00  0.00000000E+00  0.00000000E+00
  0.00000000E+00  0.00000000E+00  0.00000000E+00
  0.00000000E+00  0.00000000E+00  0.00000000E+00
  0.00000000E+00  0.00000000E+00  0.00000000E+00
  0.00000000E+00  0.00000000E+00  0.00000000E+00
  0.00000000E+00  0.00000000E+00  0.00000000E+00
  0.00000000E+00  0.00000000E+00  0.00000000E+00
  0.00000000E+00  0.00000000E+00  0.00000000E+00
  0.00000000E+00  0.00000000E+00  0.00000000E+00
  0.00000000E+00  0.00000000E+00  0.00000000E+00
  0.00000000E+00  0.00000000E+00  0.00000000E+00
  0.00000000E+00  0.00000000E+00  0.00000000E+00
  0.00000000E+00  0.00000000E+00  0.00000000E+00
  0.00000000E+00  0.00000000E+00  0.00000000E+00
  0.00000000E+00  0.00000000E+00  0.00000000E+00
  0.00000000E+00  0.00000000E+00  0.00000000E+00
  0.00000000E+00  0.00000000E+00  0.00000000E+00
  0.00000000E+00  0.00000000E+00  0.00000000E+00
  0.00000000E+00  0.00000000E+00  0.00000000E+00
  0.00000000E+00  0.00000000E+00  0.00000000E+00
  0.00000000E+00  0.00000000E+00  0.00000000E+00
  0.00000000E+00  0.00000000E+00  0.00000000E+00
  0.00000000E+00  0.00000000E+00  0.00000000E+00
  0.00000000E+00  0.00000000E+00  0.00000000E+00
  0.00000000E+00  0.00000000E+00  0.00000000E+00
  0.00000000E+00  0.00000000E+00  0.00000000E+00
  0.00000000E+00  0.00000000E+00  0.00000000E+00
  0.00000000E+00  0.00000000E+00  0.00000000E+00
  0.00000000E+00  0.00000000E+00  0.00000000E+00
  0.00000000E+00  0.00000000E+00  0.00000000E+00
  0.00000000E+00  0.00000000E+00  0.00000000E+00
  0.00000000E+00  0.00000000E+00  0.00000000E+00
  0.00000000E+00  0.00000000E+00  0.00000000E+00
  0.00000000E+00  0.00000000E+00  0.00000000E+00
  0.00000000E+00  0.00000000E+00  0.00000000E+00
  0.00000000E+00  0.00000000E+00  0.00000000E+00
  0.00000000E+00  0.00000000E+00  0.00000000E+00
  0.00000000E+00  0.00000000E+00  0.00000000E+00
  0.00000000E+00  0.00000000E+00  0.00000000E+00
  0.00000000E+00  0.00000000E+00  0.00000000E+00
  0.00000000E+00  0.00000000E+00  0.00000000E+00
  0.00000000E+00  0.00000000E+00  0.00000000E+00
  0.00000000E+00  0.00000000E+00  0.00000000E+00
  0.00000000E+00  0.00000000E+00  0.00000000E+00
  0.00000000E+00  0.00000000E+00  0.00000000E+00
  0.00000000E+00  0.00000000E+00  0.00000000E+00
  0.00000000E+00  0.00000000E+00  0.00000000E+00
  0.00000000E+00  0.00000000E+00  0.00000000E+00
  0.00000000E+00  0.00000000E+00  0.00000000E+00
  0.00000000E+00  0.00000000E+00  0.00000000E+00
  0.00000000E+00  0.00000000E+00  0.00000000E+00
  0.00000000E+00  0.00000000E+00  0.00000000E+00
