Au  O  C  N  H                          
   1.00000000000000     
    20.3604714350000009    0.0000000000000000    0.0000000000000000
    10.1802357175000004   17.6326854956999988    0.0000000000000000
     0.0000000000000000    0.0000000000000000   20.0000000000000000
   Au   O    C    N    H 
   192     4    11     2    14
Selective dynamics
Direct
  0.0000000000000000  0.0000000000000000  0.0000000000000000   F   F   F
  0.0833333333338544  0.0833333333347497  0.0000000000000000   F   F   F
  0.1666666666656269  0.1666666666638292  0.0000000000000000   F   F   F
  0.2499999999975415  0.0000000000000000  0.0000000000000000   F   F   F
  0.3333333333313959  0.0833333333347497  0.0000000000000000   F   F   F
  0.4166666666680854  0.1666666666638292  0.0000000000000000   F   F   F
  0.0000000000019398  0.2499999999985789  0.0000000000000000   F   F   F
  0.0833333333308772  0.3333333333333357  0.0000000000000000   F   F   F
  0.1666666666647316  0.4166666666680854  0.0000000000000000   F   F   F
  0.2499999999994813  0.2499999999985789  0.0000000000000000   F   F   F
  0.3333333333333357  0.3333333333333357  0.0000000000000000   F   F   F
  0.4166666666622731  0.4166666666680854  0.0000000000000000   F   F   F
  0.0833333333325115  0.0000000000000000  0.1199752285000031   F   F   F
  0.0000000000005969  0.1666666666638292  0.1199752285000031   F   F   F
  0.1666666666663659  0.0833333333347497  0.1199752285000031   F   F   F
  0.3333333333349700  0.0000000000000000  0.1199752285000031   F   F   F
  0.2500000000030553  0.1666666666638292  0.1199752285000031   F   F   F
  0.4166666666639145  0.0833333333347497  0.1199752285000031   F   F   F
  0.0833333333344513  0.2499999999985789  0.1199752285000031   F   F   F
  0.9999999999997016  0.4166666666680854  0.1199752285000031   F   F   F
  0.1666666666683057  0.3333333333333357  0.1199752285000031   F   F   F
  0.3333333333319928  0.2499999999985789  0.1199752285000031   F   F   F
  0.2499999999972431  0.4166666666680854  0.1199752285000031   F   F   F
  0.4166666666658472  0.3333333333333357  0.1199752285000031   F   F   F
 -0.0000832128643285  0.0834001605139534  0.2379823821857130   T   T   T
  0.1665266162943332  0.0002617936821205  0.2379698261814513   T   T   T
  0.0832923267952018  0.1667397789284291  0.2379625682161516   T   T   T
  0.2500169565009115  0.0833579558323747  0.2380372350406192   T   T   T
  0.4167026056560906 -0.0000015704931386  0.2380336369963662   T   T   T
  0.3332969561280085  0.1666120583977909  0.2379788038944710   T   T   T
  0.0000179442695703  0.3333313981860293  0.2379733416949847   T   T   T
  0.1666834334491005  0.2499873894433791  0.2380212659779211   T   T   T
  0.0833367193532256  0.4166025443798241  0.2380162216487266   T   T   T
  0.2498758479001397  0.3332417020764059  0.2380936069384680   T   T   T
  0.4164660542006715  0.2499823987390036  0.2379135435993252   T   T   T
  0.3328022691352023  0.4166358394585740  0.2375499510026950   T   T   T
  0.9997114000309887  0.0002672351375446  0.3583894529172484   T   T   T
  0.0831284988175179  0.0836149996326409  0.3584210617427826   T   T   T
  0.1666408385282998  0.1667132391832274  0.3583873806830591   T   T   T
  0.2499653510449224  0.0000784920127789  0.3584558211026994   T   T   T
  0.3333625098318391  0.0833683998065994  0.3583867918358066   T   T   T
  0.4166658372852529  0.1666934515255803  0.3583544072340736   T   T   T
 -0.0000288535349722  0.2500588723137045  0.3583223780185362   T   T   T
  0.0833526543263093  0.3333051437508736  0.3584011186052529   T   T   T
  0.1665887185647611  0.4165890019635495  0.3585284681498974   T   T   T
  0.2500362187841863  0.2499801577082519  0.3584621705566947   T   T   T
  0.3332833713579685  0.3332751799812493  0.3586940179555860   T   T   T
  0.4163322348155138  0.4166903845111213  0.3551960046382355   T   T   T
  0.9999999999989626  0.4999999999971649  0.0000000000000000   F   F   F
  0.0833333333328170  0.5833333333319146  0.0000000000000000   F   F   F
  0.1666666666666643  0.6666666666666643  0.0000000000000000   F   F   F
  0.2500000000014211  0.4999999999971649  0.0000000000000000   F   F   F
  0.3333333333303585  0.5833333333319146  0.0000000000000000   F   F   F
  0.4166666666642129  0.6666666666666643  0.0000000000000000   F   F   F
  0.9999999999980602  0.7500000000014211  0.0000000000000000   F   F   F
  0.0833333333347497  0.8333333333305006  0.0000000000000000   F   F   F
  0.1666666666636942  0.9166666666652503  0.0000000000000000   F   F   F
  0.2499999999956088  0.7500000000014211  0.0000000000000000   F   F   F
  0.3333333333322983  0.8333333333305006  0.0000000000000000   F   F   F
  0.4166666666661456  0.9166666666652503  0.0000000000000000   F   F   F
  0.0833333333363910  0.4999999999971649  0.1199752285000031   F   F   F
  0.0000000000016342  0.6666666666666643  0.1199752285000031   F   F   F
  0.1666666666653285  0.5833333333319146  0.1199752285000031   F   F   F
  0.3333333333339326  0.4999999999971649  0.1199752285000031   F   F   F
  0.2499999999991829  0.6666666666666643  0.1199752285000031   F   F   F
  0.4166666666677870  0.5833333333319146  0.1199752285000031   F   F   F
  0.0833333333305788  0.7500000000014211  0.1199752285000031   F   F   F
  0.9999999999986642  0.9166666666652503  0.1199752285000031   F   F   F
  0.1666666666672683  0.8333333333305006  0.1199752285000031   F   F   F
  0.3333333333330373  0.7500000000014211  0.1199752285000031   F   F   F
  0.2500000000011156  0.9166666666652503  0.1199752285000031   F   F   F
  0.4166666666648098  0.8333333333305006  0.1199752285000031   F   F   F
  0.9998509862472460  0.5833390526105108  0.2380370524493841   T   T   T
  0.1662261394953393  0.4999987776732153  0.2378957710143280   T   T   T
  0.0827961129029757  0.6666887896115937  0.2378542935934613   T   T   T
  0.2492836536185589  0.5835040870403368  0.2376961419235832   T   T   T
  0.4164197491678548  0.5005927406514494  0.2377479831665831   T   T   T
  0.3328124369065395  0.6671193516674667  0.2374800252548212   T   T   T
  0.9997084772310894  0.8334863347911221  0.2379654616860452   T   T   T
  0.1658652324882917  0.7503144582967911  0.2374530188998299   T   T   T
  0.0831177104132281  0.9168611754189155  0.2379610893023403   T   T   T
  0.2497726312899398  0.8340544600686459  0.2374977543248706   T   T   T
  0.4165251666692038  0.7506029625612741  0.2375819996110638   T   T   T
  0.3332923739703693  0.9169893369570845  0.2380038250785032   T   T   T
 -0.0000207677713939  0.4999903648814325  0.3584010949387544   T   T   T
  0.0831330727595721  0.5833645785846313  0.3585270073848177   T   T   T
  0.1652084641425426  0.6675966258133276  0.3580668124911867   T   T   T
  0.2493309790758287  0.5000771049375989  0.3578461641293142   T   T   T
  0.3316196752234249  0.5844891551010242  0.3568108539306470   T   T   T
  0.4158678211683899  0.6677174119771655  0.3565578724783419   T   T   T
  0.9994639837672151  0.7502473306853973  0.3585174185991906   T   T   T
  0.0825637423676446  0.8339051112295054  0.3585343742136444   T   T   T
  0.1660340713557306  0.9174855114213990  0.3583761751612624   T   T   T
  0.2482890711127011  0.7514461006890367  0.3561524684953465   T   T   T
  0.3329169999846251  0.8337393697197398  0.3584886629299594   T   T   T
  0.4166696757333229  0.9166878100337571  0.3585039458015172   T   T   T
  0.5000000000000000  0.0000000000000000  0.0000000000000000   F   F   F
  0.5833333333289374  0.0833333333347497  0.0000000000000000   F   F   F
  0.6666666666656269  0.1666666666638292  0.0000000000000000   F   F   F
  0.7499999999975415  0.0000000000000000  0.0000000000000000   F   F   F
  0.8333333333313959  0.0833333333347497  0.0000000000000000   F   F   F
  0.9166666666680854  0.1666666666638292  0.0000000000000000   F   F   F
  0.4999999999970228  0.2499999999985789  0.0000000000000000   F   F   F
  0.5833333333308772  0.3333333333333357  0.0000000000000000   F   F   F
  0.6666666666647316  0.4166666666680854  0.0000000000000000   F   F   F
  0.7499999999994813  0.2499999999985789  0.0000000000000000   F   F   F
  0.8333333333333357  0.3333333333333357  0.0000000000000000   F   F   F
  0.9166666666622731  0.4166666666680854  0.0000000000000000   F   F   F
  0.5833333333325115  0.0000000000000000  0.1199752285000031   F   F   F
  0.5000000000005969  0.1666666666638292  0.1199752285000031   F   F   F
  0.6666666666663659  0.0833333333347497  0.1199752285000031   F   F   F
  0.8333333333300601  0.0000000000000000  0.1199752285000031   F   F   F
  0.7499999999981455  0.1666666666638292  0.1199752285000031   F   F   F
  0.9166666666639145  0.0833333333347497  0.1199752285000031   F   F   F
  0.5833333333344513  0.2499999999985789  0.1199752285000031   F   F   F
  0.4999999999997016  0.4166666666680854  0.1199752285000031   F   F   F
  0.6666666666633958  0.3333333333333357  0.1199752285000031   F   F   F
  0.8333333333319928  0.2499999999985789  0.1199752285000031   F   F   F
  0.7499999999972431  0.4166666666680854  0.1199752285000031   F   F   F
  0.9166666666658472  0.3333333333333357  0.1199752285000031   F   F   F
  0.4999833486914441  0.0833003996387653  0.2379969295243405   T   T   T
  0.6667049624698895  0.9998935913042316  0.2379896505741463   T   T   T
  0.5836922721937041  0.1661579465788899  0.2376758667581281   T   T   T
  0.7500812843056027  0.0832915270935166  0.2380097835085840   T   T   T
  0.9166037044942549  0.0000745309724828  0.2379853208354938   T   T   T
  0.8332313395180387  0.1667623425670030  0.2380282796867271   T   T   T
  0.5004865554900302  0.3331749160825900  0.2371524740099604   T   T   T
  0.6667772943365998  0.2499450671876788  0.2379874295669018   T   T   T
  0.5833093198244530  0.4168911458231411  0.2380391533119508   T   T   T
  0.7500105928516765  0.3332917533572172  0.2380009978216469   T   T   T
  0.9166372018997401  0.2500213245056083  0.2379824455896770   T   T   T
  0.8334237470073651  0.4165701311702089  0.2379941828539150   T   T   T
  0.5000811264440923  0.0000112796885940  0.3584747222729331   T   T   T
  0.5833514327313073  0.0833278726563897  0.3584498931660198   T   T   T
  0.6666765787254065  0.1667404826358002  0.3583758455380646   T   T   T
  0.7498748129630033  0.0000518858933816  0.3584394014188667   T   T   T
  0.8332375721770380  0.0834051694652178  0.3583825338180039   T   T   T
  0.9164993576605796  0.1668193216369891  0.3583332094727538   T   T   T
  0.5004497334750490  0.2499165905850471  0.3565695640087919   T   T   T
  0.5832998232945594  0.3338389575717214  0.3582670206353917   T   T   T
  0.6665107200139193  0.4166582355096279  0.3585681204639234   T   T   T
  0.7498625614952772  0.2500874009883361  0.3585456489920569   T   T   T
  0.8332356128484630  0.3333613362498127  0.3584020605927262   T   T   T
  0.9167022937307964  0.4166436197845001  0.3583722063579383   T   T   T
  0.4999999999989626  0.4999999999971649  0.0000000000000000   F   F   F
  0.5833333333328170  0.5833333333319146  0.0000000000000000   F   F   F
  0.6666666666666643  0.6666666666666643  0.0000000000000000   F   F   F
  0.7500000000014211  0.4999999999971649  0.0000000000000000   F   F   F
  0.8333333333303585  0.5833333333319146  0.0000000000000000   F   F   F
  0.9166666666642129  0.6666666666666643  0.0000000000000000   F   F   F
  0.4999999999980602  0.7500000000014211  0.0000000000000000   F   F   F
  0.5833333333347497  0.8333333333305006  0.0000000000000000   F   F   F
  0.6666666666636942  0.9166666666652503  0.0000000000000000   F   F   F
  0.7499999999956088  0.7500000000014211  0.0000000000000000   F   F   F
  0.8333333333322983  0.8333333333305006  0.0000000000000000   F   F   F
  0.9166666666661456  0.9166666666652503  0.0000000000000000   F   F   F
  0.5833333333314741  0.4999999999971649  0.1199752285000031   F   F   F
  0.4999999999967244  0.6666666666666643  0.1199752285000031   F   F   F
  0.6666666666653285  0.5833333333319146  0.1199752285000031   F   F   F
  0.8333333333339326  0.4999999999971649  0.1199752285000031   F   F   F
  0.7499999999991829  0.6666666666666643  0.1199752285000031   F   F   F
  0.9166666666628700  0.5833333333319146  0.1199752285000031   F   F   F
  0.5833333333305788  0.7500000000014211  0.1199752285000031   F   F   F
  0.4999999999986642  0.9166666666652503  0.1199752285000031   F   F   F
  0.6666666666672683  0.8333333333305006  0.1199752285000031   F   F   F
  0.8333333333281203  0.7500000000014211  0.1199752285000031   F   F   F
  0.7499999999962057  0.9166666666652503  0.1199752285000031   F   F   F
  0.9166666666648098  0.8333333333305006  0.1199752285000031   F   F   F
  0.5001022763229166  0.5833535204203759  0.2379655589344965   T   T   T
  0.6668529964814531  0.4998282570980256  0.2380199457075265   T   T   T
  0.5831502052441631  0.6667606981605758  0.2379711338252989   T   T   T
  0.7501054862193011  0.5832001534756690  0.2378408971924651   T   T   T
  0.9166801106065563  0.4999769379809447  0.2379778325906644   T   T   T
  0.8332814185584185  0.6666762486616721  0.2379788968778395   T   T   T
  0.5000331499950489  0.8334379594568484  0.2380293096088149   T   T   T
  0.6665831830542543  0.7502216447927778  0.2378104677248591   T   T   T
  0.5832954495699607  0.9167162912753695  0.2379876320974773   T   T   T
  0.7499854711515923  0.8333702972099054  0.2379888390767834   T   T   T
  0.9165580915697039  0.7500770139086483  0.2380284888283134   T   T   T
  0.8332737994264473  0.9167358540835870  0.2380136331784022   T   T   T
  0.4996693675519701  0.5007450731020476  0.3583950435836205   T   T   T
  0.5837273730862522  0.5832548606732592  0.3578733201848485   T   T   T
  0.6669414277824879  0.6667870509507533  0.3573882653276244   T   T   T
  0.7501365111490873  0.4998898597926709  0.3583636643642642   T   T   T
  0.8333687318116435  0.5833037127516320  0.3583419023319518   T   T   T
  0.9165787111845055  0.6666843244601075  0.3583775279500371   T   T   T
  0.4997246954508214  0.7502589907511750  0.3584403246961043   T   T   T
  0.5832807093591866  0.8333794313125774  0.3585124928165839   T   T   T
  0.6666245397630247  0.9166686744868361  0.3585049407146195   T   T   T
  0.7499784458032983  0.7500856946574990  0.3584026254640209   T   T   T
  0.8331842833574159  0.8333903054334009  0.3584098700604114   T   T   T
  0.9164347842078147  0.9168117303515511  0.3584167257465568   T   T   T
  0.5719147442080814  0.5659232685379610  0.5245639348300111   T   T   T
  0.5259636058749433  0.6945134357701782  0.5277613412129709   T   T   T
  0.3687734729916851  0.3685644336682186  0.5269078681139411   T   T   T
  0.4972987809766660  0.2859870605381082  0.5244047798785689   T   T   T
  0.2816804359336019  0.7343108633831967  0.5285399284973930   T   T   T
  0.3272623173613036  0.6493946829082339  0.5229044742589124   T   T   T
  0.2917178895465755  0.6059994174454901  0.5185206065086436   T   T   T
  0.3316486747337513  0.5266976094297837  0.5161998881837446   T   T   T
  0.4111891693692068  0.4888731498714093  0.5182657918906691   T   T   T
  0.4490912701035765  0.5306952316480444  0.5200490906815015   T   T   T
  0.4076590181515112  0.6101910486660339  0.5226785682315758   T   T   T
  0.5187832296689171  0.6312796721908046  0.5258320799475631   T   T   T
  0.6030053540804210  0.6796434429234910  0.5316229093310719   T   T   T
  0.4339378970801412  0.3564919127121193  0.5234869146234388   T   T   T
  0.4820689836749951  0.2243157026251456  0.5324650958020274   T   T   T
  0.4426955130719221  0.6543760149591547  0.5253514106745395   T   T   T
  0.4566531368788197  0.4096309411079984  0.5179367788592225   T   T   T
  0.2298069136794957  0.6355331157482538  0.5175278951351724   T   T   T
  0.3021374121557152  0.4946447894440292  0.5142598998772410   T   T   T
  0.5107928006649766  0.5019320938464779  0.5214551469889465   T   T   T
  0.4077157199830161  0.7115018193440932  0.5258673785597849   T   T   T
  0.5136723441118818  0.3883657187531269  0.5154432532125117   T   T   T
  0.2914745112686260  0.7544310555045549  0.5767695088796289   T   T   T
  0.2208142920297319  0.7540505613835649  0.5245703993171900   T   T   T
  0.2954358788426329  0.7629369391516475  0.4884029660610160   T   T   T
  0.5994577893977613  0.7342829963002867  0.5220239792977608   T   T   T
  0.6264982901408440  0.6581380035396603  0.5815684077359727   T   T   T
  0.6385350545827498  0.6377682570745371  0.4936630646673150   T   T   T
  0.4614929803765773  0.2247286048778927  0.5833975788589078   T   T   T
  0.4393721930028301  0.2292051803005553  0.4960139515118522   T   T   T
  0.5364408695425016  0.1726300308199279  0.5233762314163024   T   T   T
 
  0.00000000E+00  0.00000000E+00  0.00000000E+00
  0.00000000E+00  0.00000000E+00  0.00000000E+00
  0.00000000E+00  0.00000000E+00  0.00000000E+00
  0.00000000E+00  0.00000000E+00  0.00000000E+00
  0.00000000E+00  0.00000000E+00  0.00000000E+00
  0.00000000E+00  0.00000000E+00  0.00000000E+00
  0.00000000E+00  0.00000000E+00  0.00000000E+00
  0.00000000E+00  0.00000000E+00  0.00000000E+00
  0.00000000E+00  0.00000000E+00  0.00000000E+00
  0.00000000E+00  0.00000000E+00  0.00000000E+00
  0.00000000E+00  0.00000000E+00  0.00000000E+00
  0.00000000E+00  0.00000000E+00  0.00000000E+00
  0.00000000E+00  0.00000000E+00  0.00000000E+00
  0.00000000E+00  0.00000000E+00  0.00000000E+00
  0.00000000E+00  0.00000000E+00  0.00000000E+00
  0.00000000E+00  0.00000000E+00  0.00000000E+00
  0.00000000E+00  0.00000000E+00  0.00000000E+00
  0.00000000E+00  0.00000000E+00  0.00000000E+00
  0.00000000E+00  0.00000000E+00  0.00000000E+00
  0.00000000E+00  0.00000000E+00  0.00000000E+00
  0.00000000E+00  0.00000000E+00  0.00000000E+00
  0.00000000E+00  0.00000000E+00  0.00000000E+00
  0.00000000E+00  0.00000000E+00  0.00000000E+00
  0.00000000E+00  0.00000000E+00  0.00000000E+00
  0.00000000E+00  0.00000000E+00  0.00000000E+00
  0.00000000E+00  0.00000000E+00  0.00000000E+00
  0.00000000E+00  0.00000000E+00  0.00000000E+00
  0.00000000E+00  0.00000000E+00  0.00000000E+00
  0.00000000E+00  0.00000000E+00  0.00000000E+00
  0.00000000E+00  0.00000000E+00  0.00000000E+00
  0.00000000E+00  0.00000000E+00  0.00000000E+00
  0.00000000E+00  0.00000000E+00  0.00000000E+00
  0.00000000E+00  0.00000000E+00  0.00000000E+00
  0.00000000E+00  0.00000000E+00  0.00000000E+00
  0.00000000E+00  0.00000000E+00  0.00000000E+00
  0.00000000E+00  0.00000000E+00  0.00000000E+00
  0.00000000E+00  0.00000000E+00  0.00000000E+00
  0.00000000E+00  0.00000000E+00  0.00000000E+00
  0.00000000E+00  0.00000000E+00  0.00000000E+00
  0.00000000E+00  0.00000000E+00  0.00000000E+00
  0.00000000E+00  0.00000000E+00  0.00000000E+00
  0.00000000E+00  0.00000000E+00  0.00000000E+00
  0.00000000E+00  0.00000000E+00  0.00000000E+00
  0.00000000E+00  0.00000000E+00  0.00000000E+00
  0.00000000E+00  0.00000000E+00  0.00000000E+00
  0.00000000E+00  0.00000000E+00  0.00000000E+00
  0.00000000E+00  0.00000000E+00  0.00000000E+00
  0.00000000E+00  0.00000000E+00  0.00000000E+00
  0.00000000E+00  0.00000000E+00  0.00000000E+00
  0.00000000E+00  0.00000000E+00  0.00000000E+00
  0.00000000E+00  0.00000000E+00  0.00000000E+00
  0.00000000E+00  0.00000000E+00  0.00000000E+00
  0.00000000E+00  0.00000000E+00  0.00000000E+00
  0.00000000E+00  0.00000000E+00  0.00000000E+00
  0.00000000E+00  0.00000000E+00  0.00000000E+00
  0.00000000E+00  0.00000000E+00  0.00000000E+00
  0.00000000E+00  0.00000000E+00  0.00000000E+00
  0.00000000E+00  0.00000000E+00  0.00000000E+00
  0.00000000E+00  0.00000000E+00  0.00000000E+00
  0.00000000E+00  0.00000000E+00  0.00000000E+00
  0.00000000E+00  0.00000000E+00  0.00000000E+00
  0.00000000E+00  0.00000000E+00  0.00000000E+00
  0.00000000E+00  0.00000000E+00  0.00000000E+00
  0.00000000E+00  0.00000000E+00  0.00000000E+00
  0.00000000E+00  0.00000000E+00  0.00000000E+00
  0.00000000E+00  0.00000000E+00  0.00000000E+00
  0.00000000E+00  0.00000000E+00  0.00000000E+00
  0.00000000E+00  0.00000000E+00  0.00000000E+00
  0.00000000E+00  0.00000000E+00  0.00000000E+00
  0.00000000E+00  0.00000000E+00  0.00000000E+00
  0.00000000E+00  0.00000000E+00  0.00000000E+00
  0.00000000E+00  0.00000000E+00  0.00000000E+00
  0.00000000E+00  0.00000000E+00  0.00000000E+00
  0.00000000E+00  0.00000000E+00  0.00000000E+00
  0.00000000E+00  0.00000000E+00  0.00000000E+00
  0.00000000E+00  0.00000000E+00  0.00000000E+00
  0.00000000E+00  0.00000000E+00  0.00000000E+00
  0.00000000E+00  0.00000000E+00  0.00000000E+00
  0.00000000E+00  0.00000000E+00  0.00000000E+00
  0.00000000E+00  0.00000000E+00  0.00000000E+00
  0.00000000E+00  0.00000000E+00  0.00000000E+00
  0.00000000E+00  0.00000000E+00  0.00000000E+00
  0.00000000E+00  0.00000000E+00  0.00000000E+00
  0.00000000E+00  0.00000000E+00  0.00000000E+00
  0.00000000E+00  0.00000000E+00  0.00000000E+00
  0.00000000E+00  0.00000000E+00  0.00000000E+00
  0.00000000E+00  0.00000000E+00  0.00000000E+00
  0.00000000E+00  0.00000000E+00  0.00000000E+00
  0.00000000E+00  0.00000000E+00  0.00000000E+00
  0.00000000E+00  0.00000000E+00  0.00000000E+00
  0.00000000E+00  0.00000000E+00  0.00000000E+00
  0.00000000E+00  0.00000000E+00  0.00000000E+00
  0.00000000E+00  0.00000000E+00  0.00000000E+00
  0.00000000E+00  0.00000000E+00  0.00000000E+00
  0.00000000E+00  0.00000000E+00  0.00000000E+00
  0.00000000E+00  0.00000000E+00  0.00000000E+00
  0.00000000E+00  0.00000000E+00  0.00000000E+00
  0.00000000E+00  0.00000000E+00  0.00000000E+00
  0.00000000E+00  0.00000000E+00  0.00000000E+00
  0.00000000E+00  0.00000000E+00  0.00000000E+00
  0.00000000E+00  0.00000000E+00  0.00000000E+00
  0.00000000E+00  0.00000000E+00  0.00000000E+00
  0.00000000E+00  0.00000000E+00  0.00000000E+00
  0.00000000E+00  0.00000000E+00  0.00000000E+00
  0.00000000E+00  0.00000000E+00  0.00000000E+00
  0.00000000E+00  0.00000000E+00  0.00000000E+00
  0.00000000E+00  0.00000000E+00  0.00000000E+00
  0.00000000E+00  0.00000000E+00  0.00000000E+00
  0.00000000E+00  0.00000000E+00  0.00000000E+00
  0.00000000E+00  0.00000000E+00  0.00000000E+00
  0.00000000E+00  0.00000000E+00  0.00000000E+00
  0.00000000E+00  0.00000000E+00  0.00000000E+00
  0.00000000E+00  0.00000000E+00  0.00000000E+00
  0.00000000E+00  0.00000000E+00  0.00000000E+00
  0.00000000E+00  0.00000000E+00  0.00000000E+00
  0.00000000E+00  0.00000000E+00  0.00000000E+00
  0.00000000E+00  0.00000000E+00  0.00000000E+00
  0.00000000E+00  0.00000000E+00  0.00000000E+00
  0.00000000E+00  0.00000000E+00  0.00000000E+00
  0.00000000E+00  0.00000000E+00  0.00000000E+00
  0.00000000E+00  0.00000000E+00  0.00000000E+00
  0.00000000E+00  0.00000000E+00  0.00000000E+00
  0.00000000E+00  0.00000000E+00  0.00000000E+00
  0.00000000E+00  0.00000000E+00  0.00000000E+00
  0.00000000E+00  0.00000000E+00  0.00000000E+00
  0.00000000E+00  0.00000000E+00  0.00000000E+00
  0.00000000E+00  0.00000000E+00  0.00000000E+00
  0.00000000E+00  0.00000000E+00  0.00000000E+00
  0.00000000E+00  0.00000000E+00  0.00000000E+00
  0.00000000E+00  0.00000000E+00  0.00000000E+00
  0.00000000E+00  0.00000000E+00  0.00000000E+00
  0.00000000E+00  0.00000000E+00  0.00000000E+00
  0.00000000E+00  0.00000000E+00  0.00000000E+00
  0.00000000E+00  0.00000000E+00  0.00000000E+00
  0.00000000E+00  0.00000000E+00  0.00000000E+00
  0.00000000E+00  0.00000000E+00  0.00000000E+00
  0.00000000E+00  0.00000000E+00  0.00000000E+00
  0.00000000E+00  0.00000000E+00  0.00000000E+00
  0.00000000E+00  0.00000000E+00  0.00000000E+00
  0.00000000E+00  0.00000000E+00  0.00000000E+00
  0.00000000E+00  0.00000000E+00  0.00000000E+00
  0.00000000E+00  0.00000000E+00  0.00000000E+00
  0.00000000E+00  0.00000000E+00  0.00000000E+00
  0.00000000E+00  0.00000000E+00  0.00000000E+00
  0.00000000E+00  0.00000000E+00  0.00000000E+00
  0.00000000E+00  0.00000000E+00  0.00000000E+00
  0.00000000E+00  0.00000000E+00  0.00000000E+00
  0.00000000E+00  0.00000000E+00  0.00000000E+00
  0.00000000E+00  0.00000000E+00  0.00000000E+00
  0.00000000E+00  0.00000000E+00  0.00000000E+00
  0.00000000E+00  0.00000000E+00  0.00000000E+00
  0.00000000E+00  0.00000000E+00  0.00000000E+00
  0.00000000E+00  0.00000000E+00  0.00000000E+00
  0.00000000E+00  0.00000000E+00  0.00000000E+00
  0.00000000E+00  0.00000000E+00  0.00000000E+00
  0.00000000E+00  0.00000000E+00  0.00000000E+00
  0.00000000E+00  0.00000000E+00  0.00000000E+00
  0.00000000E+00  0.00000000E+00  0.00000000E+00
  0.00000000E+00  0.00000000E+00  0.00000000E+00
  0.00000000E+00  0.00000000E+00  0.00000000E+00
  0.00000000E+00  0.00000000E+00  0.00000000E+00
  0.00000000E+00  0.00000000E+00  0.00000000E+00
  0.00000000E+00  0.00000000E+00  0.00000000E+00
  0.00000000E+00  0.00000000E+00  0.00000000E+00
  0.00000000E+00  0.00000000E+00  0.00000000E+00
  0.00000000E+00  0.00000000E+00  0.00000000E+00
  0.00000000E+00  0.00000000E+00  0.00000000E+00
  0.00000000E+00  0.00000000E+00  0.00000000E+00
  0.00000000E+00  0.00000000E+00  0.00000000E+00
  0.00000000E+00  0.00000000E+00  0.00000000E+00
  0.00000000E+00  0.00000000E+00  0.00000000E+00
  0.00000000E+00  0.00000000E+00  0.00000000E+00
  0.00000000E+00  0.00000000E+00  0.00000000E+00
  0.00000000E+00  0.00000000E+00  0.00000000E+00
  0.00000000E+00  0.00000000E+00  0.00000000E+00
  0.00000000E+00  0.00000000E+00  0.00000000E+00
  0.00000000E+00  0.00000000E+00  0.00000000E+00
  0.00000000E+00  0.00000000E+00  0.00000000E+00
  0.00000000E+00  0.00000000E+00  0.00000000E+00
  0.00000000E+00  0.00000000E+00  0.00000000E+00
  0.00000000E+00  0.00000000E+00  0.00000000E+00
  0.00000000E+00  0.00000000E+00  0.00000000E+00
  0.00000000E+00  0.00000000E+00  0.00000000E+00
  0.00000000E+00  0.00000000E+00  0.00000000E+00
  0.00000000E+00  0.00000000E+00  0.00000000E+00
  0.00000000E+00  0.00000000E+00  0.00000000E+00
  0.00000000E+00  0.00000000E+00  0.00000000E+00
  0.00000000E+00  0.00000000E+00  0.00000000E+00
  0.00000000E+00  0.00000000E+00  0.00000000E+00
  0.00000000E+00  0.00000000E+00  0.00000000E+00
  0.00000000E+00  0.00000000E+00  0.00000000E+00
  0.00000000E+00  0.00000000E+00  0.00000000E+00
  0.00000000E+00  0.00000000E+00  0.00000000E+00
  0.00000000E+00  0.00000000E+00  0.00000000E+00
  0.00000000E+00  0.00000000E+00  0.00000000E+00
  0.00000000E+00  0.00000000E+00  0.00000000E+00
  0.00000000E+00  0.00000000E+00  0.00000000E+00
  0.00000000E+00  0.00000000E+00  0.00000000E+00
  0.00000000E+00  0.00000000E+00  0.00000000E+00
  0.00000000E+00  0.00000000E+00  0.00000000E+00
  0.00000000E+00  0.00000000E+00  0.00000000E+00
  0.00000000E+00  0.00000000E+00  0.00000000E+00
  0.00000000E+00  0.00000000E+00  0.00000000E+00
  0.00000000E+00  0.00000000E+00  0.00000000E+00
  0.00000000E+00  0.00000000E+00  0.00000000E+00
  0.00000000E+00  0.00000000E+00  0.00000000E+00
  0.00000000E+00  0.00000000E+00  0.00000000E+00
  0.00000000E+00  0.00000000E+00  0.00000000E+00
  0.00000000E+00  0.00000000E+00  0.00000000E+00
  0.00000000E+00  0.00000000E+00  0.00000000E+00
  0.00000000E+00  0.00000000E+00  0.00000000E+00
  0.00000000E+00  0.00000000E+00  0.00000000E+00
  0.00000000E+00  0.00000000E+00  0.00000000E+00
  0.00000000E+00  0.00000000E+00  0.00000000E+00
  0.00000000E+00  0.00000000E+00  0.00000000E+00
  0.00000000E+00  0.00000000E+00  0.00000000E+00
  0.00000000E+00  0.00000000E+00  0.00000000E+00
  0.00000000E+00  0.00000000E+00  0.00000000E+00
  0.00000000E+00  0.00000000E+00  0.00000000E+00
  0.00000000E+00  0.00000000E+00  0.00000000E+00
  0.00000000E+00  0.00000000E+00  0.00000000E+00
  0.00000000E+00  0.00000000E+00  0.00000000E+00
  0.00000000E+00  0.00000000E+00  0.00000000E+00
