Pt  H  C                                
   1.00000000000000     
    19.4393438986000007    0.0000000000000000    0.0000000000000000
     9.7196719493000003   16.8349656490999990    0.0000000000000000
     0.0000000000000000    0.0000000000000000   20.0000000000000000
   Pt   H    C 
   192    18    16
Selective dynamics
Direct
  0.0000000000000000  0.0000000000000000  0.0000000000000000   F   F   F
  0.0833333333318009  0.0833333333338260  0.0000000000000000   F   F   F
  0.1666666666687462  0.1666666666676591  0.0000000000000000   F   F   F
  0.2500000000025722  0.0000000000000000  0.0000000000000000   F   F   F
  0.3333333333343731  0.0833333333338260  0.0000000000000000   F   F   F
  0.4166666666661740  0.1666666666676591  0.0000000000000000   F   F   F
  0.9999999999979750  0.2500000000014850  0.0000000000000000   F   F   F
  0.0833333333349131  0.3333333333353110  0.0000000000000000   F   F   F
  0.1666666666667140  0.4166666666691441  0.0000000000000000   F   F   F
  0.2500000000005400  0.2500000000014850  0.0000000000000000   F   F   F
  0.3333333333323409  0.3333333333353110  0.0000000000000000   F   F   F
  0.4166666666641419  0.4166666666691441  0.0000000000000000   F   F   F
  0.0833333333341884  0.0000000000000000  0.1145474324399984   F   F   F
  0.0000000000003624  0.1666666666676591  0.1145474324399984   F   F   F
  0.1666666666659893  0.0833333333338260  0.1145474324399984   F   F   F
  0.3333333333316162  0.0000000000000000  0.1145474324399984   F   F   F
  0.2499999999977902  0.1666666666676591  0.1145474324399984   F   F   F
  0.4166666666685614  0.0833333333338260  0.1145474324399984   F   F   F
  0.0833333333321633  0.2500000000014850  0.1145474324399984   F   F   F
  0.9999999999983373  0.4166666666691441  0.1145474324399984   F   F   F
  0.1666666666639642  0.3333333333353110  0.1145474324399984   F   F   F
  0.3333333333347355  0.2500000000014850  0.1145474324399984   F   F   F
  0.2500000000009024  0.4166666666691441  0.1145474324399984   F   F   F
  0.4166666666665364  0.3333333333353110  0.1145474324399984   F   F   F
  0.0006549425180773  0.0827067345851344  0.2270019208616566   T   T   T
  0.1669105536002937  0.0002444831159600  0.2268902744873399   T   T   T
  0.0829099307766841  0.1668166508504408  0.2269029513302057   T   T   T
  0.2502861157426277  0.0833520339650071  0.2263868590973383   T   T   T
  0.4175253786959850  0.0002896854181929  0.2256196579959108   T   T   T
  0.3332692712430563  0.1675021821812157  0.2262718258436745   T   T   T
 -0.0007202137253024  0.3328789800089694  0.2268521315085073   T   T   T
  0.1663114516041314  0.2503925014516855  0.2261909280778062   T   T   T
  0.0828586828307242  0.4163296817648847  0.2257986462984503   T   T   T
  0.2508629825175859  0.3345254891220440  0.2287613003590441   T   T   T
  0.4147500415134481  0.2526933957720183  0.2292276911421768   T   T   T
  0.3336557017872831  0.4170647004015375  0.2312840526636765   T   T   T
  0.0005918524052439 -0.0001758095222231  0.3417497893828260   T   T   T
  0.0837777620379069  0.0832832101132317  0.3417821728456121   T   T   T
  0.1658560395432958  0.1666349240461070  0.3411699100006966   T   T   T
  0.2496374012830341  0.0013614212793195  0.3412192838854477   T   T   T
  0.3329103326784149  0.0846380578838540  0.3405951121248259   T   T   T
  0.4183312424349328  0.1639272073574564  0.3400988840443399   T   T   T
 -0.0001663165824740  0.2495983766662056  0.3421074069140201   T   T   T
  0.0816096551725052  0.3326349271994461  0.3414094737805814   T   T   T
  0.1598612652342954  0.4181733729081141  0.3392883748914021   T   T   T
  0.2475736974137632  0.2487179427156680  0.3404792246551975   T   T   T
  0.3293173892865340  0.3316361262173393  0.3476186561020146   T   T   T
  0.4274862327438680  0.4098430579629599  0.3542333851657657   T   T   T
  0.0000000000040572  0.4999999999970299  0.0000000000000000   F   F   F
  0.0833333333358581  0.5833333333308559  0.0000000000000000   F   F   F
  0.1666666666676591  0.6666666666646890  0.0000000000000000   F   F   F
  0.2500000000014850  0.4999999999970299  0.0000000000000000   F   F   F
  0.3333333333332860  0.5833333333308559  0.0000000000000000   F   F   F
  0.4166666666702312  0.6666666666646890  0.0000000000000000   F   F   F
  0.0000000000020250  0.7499999999985150  0.0000000000000000   F   F   F
  0.0833333333338260  0.8333333333323409  0.0000000000000000   F   F   F
  0.1666666666656269  0.9166666666661740  0.0000000000000000   F   F   F
  0.2499999999994529  0.7499999999985150  0.0000000000000000   F   F   F
  0.3333333333363981  0.8333333333323409  0.0000000000000000   F   F   F
  0.4166666666681991  0.9166666666661740  0.0000000000000000   F   F   F
  0.0833333333331012  0.4999999999970299  0.1145474324399984   F   F   F
  0.9999999999992752  0.6666666666646890  0.1145474324399984   F   F   F
  0.1666666666700465  0.5833333333308559  0.1145474324399984   F   F   F
  0.3333333333356734  0.4999999999970299  0.1145474324399984   F   F   F
  0.2500000000018474  0.6666666666646890  0.1145474324399984   F   F   F
  0.4166666666674743  0.5833333333308559  0.1145474324399984   F   F   F
  0.0833333333362205  0.7499999999985150  0.1145474324399984   F   F   F
  0.0000000000023874  0.9166666666661740  0.1145474324399984   F   F   F
  0.1666666666680214  0.8333333333323409  0.1145474324399984   F   F   F
  0.3333333333336483  0.7499999999985150  0.1145474324399984   F   F   F
  0.2499999999998153  0.9166666666661740  0.1145474324399984   F   F   F
  0.4166666666654493  0.8333333333323409  0.1145474324399984   F   F   F
 -0.0006955843902230  0.5828668341814018  0.2265352593149707   T   T   T
  0.1666091964558898  0.5005602184845307  0.2278286934044328   T   T   T
  0.0820411039921482  0.6670443013136724  0.2267299589891256   T   T   T
  0.2488848564832928  0.5825061689585744  0.2272576226282805   T   T   T
  0.4163439618420328  0.4971601390189709  0.2295524450649316   T   T   T
  0.3348582284146328  0.6654574698075656  0.2283118706497963   T   T   T
 -0.0000632573093667  0.8330108445061432  0.2268610645047502   T   T   T
  0.1670172748125499  0.7495690115845630  0.2256204282039476   T   T   T
  0.0843954260549938  0.9159225410960609  0.2266131657105642   T   T   T
  0.2521579997363589  0.8331792209397778  0.2285192002346143   T   T   T
  0.4172283095758326  0.7496528523983333  0.2304213284025135   T   T   T
  0.3338450719896649  0.9157847761171364  0.2279547307004317   T   T   T
 -0.0021947608040551  0.5002152397743022  0.3412516521915929   T   T   T
  0.0790555952949314  0.5852174631720662  0.3412752659747423   T   T   T
  0.1624345908639473  0.6690325039523547  0.3409167445162102   T   T   T
  0.2449450734111928  0.5028037959990092  0.3454501954508626   T   T   T
  0.3286574389408701  0.5830707859861641  0.3403385202498239   T   T   T
  0.4116314097396324  0.6638021002422542  0.3473253958224765   T   T   T
 -0.0013841200361054  0.7507357549863727  0.3421580287685668   T   T   T
  0.0816087633578362  0.8345076017855821  0.3412661033550287   T   T   T
  0.1661212050197992  0.9174867336119241  0.3411835322718690   T   T   T
  0.2443644736953074  0.7519992071835534  0.3392340927369035   T   T   T
  0.3353736634726072  0.8348927270797059  0.3462995908488730   T   T   T
  0.4166950153576487  0.9222666904773912  0.3391493198366469   T   T   T
  0.5000000000000000  0.0000000000000000  0.0000000000000000   F   F   F
  0.5833333333318009  0.0833333333338260  0.0000000000000000   F   F   F
  0.6666666666687462  0.1666666666676591  0.0000000000000000   F   F   F
  0.7500000000025722  0.0000000000000000  0.0000000000000000   F   F   F
  0.8333333333343731  0.0833333333338260  0.0000000000000000   F   F   F
  0.9166666666661740  0.1666666666676591  0.0000000000000000   F   F   F
  0.4999999999979678  0.2500000000014850  0.0000000000000000   F   F   F
  0.5833333333349131  0.3333333333353110  0.0000000000000000   F   F   F
  0.6666666666667140  0.4166666666691441  0.0000000000000000   F   F   F
  0.7500000000005400  0.2500000000014850  0.0000000000000000   F   F   F
  0.8333333333323409  0.3333333333353110  0.0000000000000000   F   F   F
  0.9166666666641419  0.4166666666691441  0.0000000000000000   F   F   F
  0.5833333333341884  0.0000000000000000  0.1145474324399984   F   F   F
  0.5000000000003624  0.1666666666676591  0.1145474324399984   F   F   F
  0.6666666666659893  0.0833333333338260  0.1145474324399984   F   F   F
  0.8333333333316162  0.0000000000000000  0.1145474324399984   F   F   F
  0.7499999999977902  0.1666666666676591  0.1145474324399984   F   F   F
  0.9166666666685614  0.0833333333338260  0.1145474324399984   F   F   F
  0.5833333333321633  0.2500000000014850  0.1145474324399984   F   F   F
  0.4999999999983302  0.4166666666691441  0.1145474324399984   F   F   F
  0.6666666666639642  0.3333333333353110  0.1145474324399984   F   F   F
  0.8333333333347355  0.2500000000014850  0.1145474324399984   F   F   F
  0.7500000000009024  0.4166666666691441  0.1145474324399984   F   F   F
  0.9166666666665364  0.3333333333353110  0.1145474324399984   F   F   F
  0.5005326219379400  0.0843980001833961  0.2261977210247727   T   T   T
  0.6678358078754739 -0.0001294675476491  0.2265333462685423   T   T   T
  0.5842384681528799  0.1665876053598222  0.2255962329775100   T   T   T
  0.7517140724463534  0.0819953304774528  0.2267101630081406   T   T   T
  0.9179533298456223 -0.0012777244490297  0.2269444767470096   T   T   T
  0.8348706246560178  0.1653091182539539  0.2266984994370336   T   T   T
  0.4992390931490666  0.3345318687846126  0.2292722954202496   T   T   T
  0.6685498472266005  0.2484792820862337  0.2259033805397677   T   T   T
  0.5847743199038714  0.4160155565602488  0.2250377194680522   T   T   T
  0.7504754165944656  0.3335890765169778  0.2263168200754804   T   T   T
  0.9164801735893026  0.2498200146496594  0.2271337208525830   T   T   T
  0.8320016674764538  0.4170132779982213  0.2269434948916171   T   T   T
  0.5019959590133883  0.0005473877557067  0.3409826929649663   T   T   T
  0.5863111759211126  0.0811168241422141  0.3412448680810694   T   T   T
  0.6716239942101173  0.1634884153957883  0.3412930677956675   T   T   T
  0.7519495839020309 -0.0010761301968470  0.3419987887177889   T   T   T
  0.8356644254323605  0.0819821265464406  0.3416669589184161   T   T   T
  0.9181768980248191  0.1657925858220029  0.3419046203596910   T   T   T
  0.5082353281740914  0.2422559456599537  0.3382675791720876   T   T   T
  0.5916676954046468  0.3283757626777367  0.3397901096599417   T   T   T
  0.6701443366776001  0.4155398814195516  0.3406520846730219   T   T   T
  0.7538767719224363  0.2480326072201951  0.3408886016660172   T   T   T
  0.8346226878028005  0.3326808747901994  0.3420819588009191   T   T   T
  0.9163729897997814  0.4160590998806836  0.3419911119565256   T   T   T
  0.5000000000040572  0.4999999999970299  0.0000000000000000   F   F   F
  0.5833333333358581  0.5833333333308559  0.0000000000000000   F   F   F
  0.6666666666676591  0.6666666666646890  0.0000000000000000   F   F   F
  0.7500000000014850  0.4999999999970299  0.0000000000000000   F   F   F
  0.8333333333332860  0.5833333333308559  0.0000000000000000   F   F   F
  0.9166666666702312  0.6666666666646890  0.0000000000000000   F   F   F
  0.5000000000020250  0.7499999999985150  0.0000000000000000   F   F   F
  0.5833333333338260  0.8333333333323409  0.0000000000000000   F   F   F
  0.6666666666656269  0.9166666666661740  0.0000000000000000   F   F   F
  0.7499999999994529  0.7499999999985150  0.0000000000000000   F   F   F
  0.8333333333363981  0.8333333333323409  0.0000000000000000   F   F   F
  0.9166666666681991  0.9166666666661740  0.0000000000000000   F   F   F
  0.5833333333331012  0.4999999999970299  0.1145474324399984   F   F   F
  0.4999999999992752  0.6666666666646890  0.1145474324399984   F   F   F
  0.6666666666700465  0.5833333333308559  0.1145474324399984   F   F   F
  0.8333333333356734  0.4999999999970299  0.1145474324399984   F   F   F
  0.7500000000018474  0.6666666666646890  0.1145474324399984   F   F   F
  0.9166666666674743  0.5833333333308559  0.1145474324399984   F   F   F
  0.5833333333362205  0.7499999999985150  0.1145474324399984   F   F   F
  0.5000000000023874  0.9166666666661740  0.1145474324399984   F   F   F
  0.6666666666680214  0.8333333333323409  0.1145474324399984   F   F   F
  0.8333333333336483  0.7499999999985150  0.1145474324399984   F   F   F
  0.7499999999998153  0.9166666666661740  0.1145474324399984   F   F   F
  0.9166666666654493  0.8333333333323409  0.1145474324399984   F   F   F
  0.4984307026087831  0.5855589730398962  0.2287414052757326   T   T   T
  0.6628917057852187  0.5043044379124872  0.2298618585041265   T   T   T
  0.5817078055875793  0.6682644778474213  0.2301517304244982   T   T   T
  0.7496970412318454  0.5829834624297701  0.2262329835378152   T   T   T
  0.9162679658658867  0.4989280308070459  0.2266448767721530   T   T   T
  0.8335445141848309  0.6658652036616818  0.2267969343388377   T   T   T
  0.5006546141754968  0.8321534857244124  0.2282719766316766   T   T   T
  0.6672914756960642  0.7500891736675357  0.2264152532189980   T   T   T
  0.5840711450872490  0.9173260545657381  0.2259449513456846   T   T   T
  0.7505970184475035  0.8331218164286406  0.2268439784423976   T   T   T
  0.9163497263806339  0.7498143458389598  0.2271886438760552   T   T   T
  0.8339421885094502  0.9160427919655363  0.2271231196256979   T   T   T
  0.5050940154648295  0.4965196848929653  0.3360946217571227   T   T   T
  0.5822103973983895  0.5849346625390566  0.3512655078831495   T   T   T
  0.6724324452961258  0.6658757752107549  0.3399178585327247   T   T   T
  0.7506626819080457  0.4998058008602497  0.3420326494604742   T   T   T
  0.8345362719872207  0.5822788676910041  0.3413011806890217   T   T   T
  0.9159070096366421  0.6670525499718063  0.3420247662391868   T   T   T
  0.5073021607899617  0.7544162556642033  0.3468804897578318   T   T   T
  0.5876753670791499  0.8366498720469437  0.3406165930109057   T   T   T
  0.6689798373807783  0.9171662902517516  0.3415416604191957   T   T   T
  0.7522020611192557  0.7502365062934123  0.3415880167130962   T   T   T
  0.8340758117135710  0.8333730131047099  0.3423285979910243   T   T   T
  0.9171261298224233  0.9164533916059452  0.3420868311006791   T   T   T
  0.4653290221945769  0.8363712380007380  0.4654484449987110   T   T   T
  0.5863833887098536  0.7048273332153372  0.4666037083606104   T   T   T
  0.3353955095363146  0.8433233104865914  0.4754707314956977   T   T   T
  0.3234881983287279  0.7251683722600499  0.4634456617394920   T   T   T
  0.5742558014425978  0.5864468126284765  0.4808811344578334   T   T   T
  0.3778123875660897  0.5915830436683686  0.4701952738025336   T   T   T
  0.4232848940249003  0.6032376131928252  0.5425784439510778   T   T   T
  0.5486181148203674  0.4876999771113131  0.5194143191289983   T   T   T
  0.5245226084996383  0.4793925340635855  0.4364964045155666   T   T   T
  0.5820521717756711  0.3310145596957782  0.4778113050743898   T   T   T
  0.5363818978561538  0.3146679292903730  0.5491590087528040   T   T   T
  0.5876492882431471  0.3684026890638918  0.5574373748390651   T   T   T
  0.4402463032569073  0.4591714844288475  0.5574396038602076   T   T   T
  0.3122348913809979  0.5467578748780791  0.4807456893112336   T   T   T
  0.2101036994837570  0.5116579355491016  0.4715382725280520   T   T   T
  0.2426567732827732  0.3725932713437543  0.4657251299157771   T   T   T
  0.3870223847923319  0.2653035875483274  0.4671518157388226   T   T   T
  0.4908979275228558  0.2987200765664962  0.4594917519767893   T   T   T
  0.4608531830711939  0.7855273455579515  0.4479003659842883   T   T   T
  0.3806184128902407  0.7951597903692322  0.4447283350659515   T   T   T
  0.3793096963894702  0.7203470167317353  0.4467155518651200   T   T   T
  0.4490921707784583  0.6426510734806465  0.4520957474319612   T   T   T
  0.5297250636255174  0.6332929308231701  0.4486345272251535   T   T   T
  0.5313051223545295  0.7085194126546606  0.4494104621686713   T   T   T
  0.4341246968958282  0.5835888311133703  0.4897595426998055   T   T   T
  0.4982029978749796  0.4968766537131226  0.4879456811208435   T   T   T
  0.4729499527718017  0.4370406660172796  0.5096831721571913   T   T   T
  0.5486982212391007  0.3578461757356206  0.5244290713332704   T   T   T
  0.4135972781198157  0.4271803402949282  0.4647181220276664   T   T   T
  0.3307267165623208  0.4871061393161920  0.4628089344964912   T   T   T
  0.2678365589360257  0.4698504422299216  0.4497014313441814   T   T   T
  0.2881527459759399  0.3858907387668700  0.4489225214079915   T   T   T
  0.3696149087854720  0.3246748594297569  0.4486302893643368   T   T   T
  0.4313312529845066  0.3470622016618192  0.4479727617401966   T   T   T
 
  0.00000000E+00  0.00000000E+00  0.00000000E+00
  0.00000000E+00  0.00000000E+00  0.00000000E+00
  0.00000000E+00  0.00000000E+00  0.00000000E+00
  0.00000000E+00  0.00000000E+00  0.00000000E+00
  0.00000000E+00  0.00000000E+00  0.00000000E+00
  0.00000000E+00  0.00000000E+00  0.00000000E+00
  0.00000000E+00  0.00000000E+00  0.00000000E+00
  0.00000000E+00  0.00000000E+00  0.00000000E+00
  0.00000000E+00  0.00000000E+00  0.00000000E+00
  0.00000000E+00  0.00000000E+00  0.00000000E+00
  0.00000000E+00  0.00000000E+00  0.00000000E+00
  0.00000000E+00  0.00000000E+00  0.00000000E+00
  0.00000000E+00  0.00000000E+00  0.00000000E+00
  0.00000000E+00  0.00000000E+00  0.00000000E+00
  0.00000000E+00  0.00000000E+00  0.00000000E+00
  0.00000000E+00  0.00000000E+00  0.00000000E+00
  0.00000000E+00  0.00000000E+00  0.00000000E+00
  0.00000000E+00  0.00000000E+00  0.00000000E+00
  0.00000000E+00  0.00000000E+00  0.00000000E+00
  0.00000000E+00  0.00000000E+00  0.00000000E+00
  0.00000000E+00  0.00000000E+00  0.00000000E+00
  0.00000000E+00  0.00000000E+00  0.00000000E+00
  0.00000000E+00  0.00000000E+00  0.00000000E+00
  0.00000000E+00  0.00000000E+00  0.00000000E+00
  0.00000000E+00  0.00000000E+00  0.00000000E+00
  0.00000000E+00  0.00000000E+00  0.00000000E+00
  0.00000000E+00  0.00000000E+00  0.00000000E+00
  0.00000000E+00  0.00000000E+00  0.00000000E+00
  0.00000000E+00  0.00000000E+00  0.00000000E+00
  0.00000000E+00  0.00000000E+00  0.00000000E+00
  0.00000000E+00  0.00000000E+00  0.00000000E+00
  0.00000000E+00  0.00000000E+00  0.00000000E+00
  0.00000000E+00  0.00000000E+00  0.00000000E+00
  0.00000000E+00  0.00000000E+00  0.00000000E+00
  0.00000000E+00  0.00000000E+00  0.00000000E+00
  0.00000000E+00  0.00000000E+00  0.00000000E+00
  0.00000000E+00  0.00000000E+00  0.00000000E+00
  0.00000000E+00  0.00000000E+00  0.00000000E+00
  0.00000000E+00  0.00000000E+00  0.00000000E+00
  0.00000000E+00  0.00000000E+00  0.00000000E+00
  0.00000000E+00  0.00000000E+00  0.00000000E+00
  0.00000000E+00  0.00000000E+00  0.00000000E+00
  0.00000000E+00  0.00000000E+00  0.00000000E+00
  0.00000000E+00  0.00000000E+00  0.00000000E+00
  0.00000000E+00  0.00000000E+00  0.00000000E+00
  0.00000000E+00  0.00000000E+00  0.00000000E+00
  0.00000000E+00  0.00000000E+00  0.00000000E+00
  0.00000000E+00  0.00000000E+00  0.00000000E+00
  0.00000000E+00  0.00000000E+00  0.00000000E+00
  0.00000000E+00  0.00000000E+00  0.00000000E+00
  0.00000000E+00  0.00000000E+00  0.00000000E+00
  0.00000000E+00  0.00000000E+00  0.00000000E+00
  0.00000000E+00  0.00000000E+00  0.00000000E+00
  0.00000000E+00  0.00000000E+00  0.00000000E+00
  0.00000000E+00  0.00000000E+00  0.00000000E+00
  0.00000000E+00  0.00000000E+00  0.00000000E+00
  0.00000000E+00  0.00000000E+00  0.00000000E+00
  0.00000000E+00  0.00000000E+00  0.00000000E+00
  0.00000000E+00  0.00000000E+00  0.00000000E+00
  0.00000000E+00  0.00000000E+00  0.00000000E+00
  0.00000000E+00  0.00000000E+00  0.00000000E+00
  0.00000000E+00  0.00000000E+00  0.00000000E+00
  0.00000000E+00  0.00000000E+00  0.00000000E+00
  0.00000000E+00  0.00000000E+00  0.00000000E+00
  0.00000000E+00  0.00000000E+00  0.00000000E+00
  0.00000000E+00  0.00000000E+00  0.00000000E+00
  0.00000000E+00  0.00000000E+00  0.00000000E+00
  0.00000000E+00  0.00000000E+00  0.00000000E+00
  0.00000000E+00  0.00000000E+00  0.00000000E+00
  0.00000000E+00  0.00000000E+00  0.00000000E+00
  0.00000000E+00  0.00000000E+00  0.00000000E+00
  0.00000000E+00  0.00000000E+00  0.00000000E+00
  0.00000000E+00  0.00000000E+00  0.00000000E+00
  0.00000000E+00  0.00000000E+00  0.00000000E+00
  0.00000000E+00  0.00000000E+00  0.00000000E+00
  0.00000000E+00  0.00000000E+00  0.00000000E+00
  0.00000000E+00  0.00000000E+00  0.00000000E+00
  0.00000000E+00  0.00000000E+00  0.00000000E+00
  0.00000000E+00  0.00000000E+00  0.00000000E+00
  0.00000000E+00  0.00000000E+00  0.00000000E+00
  0.00000000E+00  0.00000000E+00  0.00000000E+00
  0.00000000E+00  0.00000000E+00  0.00000000E+00
  0.00000000E+00  0.00000000E+00  0.00000000E+00
  0.00000000E+00  0.00000000E+00  0.00000000E+00
  0.00000000E+00  0.00000000E+00  0.00000000E+00
  0.00000000E+00  0.00000000E+00  0.00000000E+00
  0.00000000E+00  0.00000000E+00  0.00000000E+00
  0.00000000E+00  0.00000000E+00  0.00000000E+00
  0.00000000E+00  0.00000000E+00  0.00000000E+00
  0.00000000E+00  0.00000000E+00  0.00000000E+00
  0.00000000E+00  0.00000000E+00  0.00000000E+00
  0.00000000E+00  0.00000000E+00  0.00000000E+00
  0.00000000E+00  0.00000000E+00  0.00000000E+00
  0.00000000E+00  0.00000000E+00  0.00000000E+00
  0.00000000E+00  0.00000000E+00  0.00000000E+00
  0.00000000E+00  0.00000000E+00  0.00000000E+00
  0.00000000E+00  0.00000000E+00  0.00000000E+00
  0.00000000E+00  0.00000000E+00  0.00000000E+00
  0.00000000E+00  0.00000000E+00  0.00000000E+00
  0.00000000E+00  0.00000000E+00  0.00000000E+00
  0.00000000E+00  0.00000000E+00  0.00000000E+00
  0.00000000E+00  0.00000000E+00  0.00000000E+00
  0.00000000E+00  0.00000000E+00  0.00000000E+00
  0.00000000E+00  0.00000000E+00  0.00000000E+00
  0.00000000E+00  0.00000000E+00  0.00000000E+00
  0.00000000E+00  0.00000000E+00  0.00000000E+00
  0.00000000E+00  0.00000000E+00  0.00000000E+00
  0.00000000E+00  0.00000000E+00  0.00000000E+00
  0.00000000E+00  0.00000000E+00  0.00000000E+00
  0.00000000E+00  0.00000000E+00  0.00000000E+00
  0.00000000E+00  0.00000000E+00  0.00000000E+00
  0.00000000E+00  0.00000000E+00  0.00000000E+00
  0.00000000E+00  0.00000000E+00  0.00000000E+00
  0.00000000E+00  0.00000000E+00  0.00000000E+00
  0.00000000E+00  0.00000000E+00  0.00000000E+00
  0.00000000E+00  0.00000000E+00  0.00000000E+00
  0.00000000E+00  0.00000000E+00  0.00000000E+00
  0.00000000E+00  0.00000000E+00  0.00000000E+00
  0.00000000E+00  0.00000000E+00  0.00000000E+00
  0.00000000E+00  0.00000000E+00  0.00000000E+00
  0.00000000E+00  0.00000000E+00  0.00000000E+00
  0.00000000E+00  0.00000000E+00  0.00000000E+00
  0.00000000E+00  0.00000000E+00  0.00000000E+00
  0.00000000E+00  0.00000000E+00  0.00000000E+00
  0.00000000E+00  0.00000000E+00  0.00000000E+00
  0.00000000E+00  0.00000000E+00  0.00000000E+00
  0.00000000E+00  0.00000000E+00  0.00000000E+00
  0.00000000E+00  0.00000000E+00  0.00000000E+00
  0.00000000E+00  0.00000000E+00  0.00000000E+00
  0.00000000E+00  0.00000000E+00  0.00000000E+00
  0.00000000E+00  0.00000000E+00  0.00000000E+00
  0.00000000E+00  0.00000000E+00  0.00000000E+00
  0.00000000E+00  0.00000000E+00  0.00000000E+00
  0.00000000E+00  0.00000000E+00  0.00000000E+00
  0.00000000E+00  0.00000000E+00  0.00000000E+00
  0.00000000E+00  0.00000000E+00  0.00000000E+00
  0.00000000E+00  0.00000000E+00  0.00000000E+00
  0.00000000E+00  0.00000000E+00  0.00000000E+00
  0.00000000E+00  0.00000000E+00  0.00000000E+00
  0.00000000E+00  0.00000000E+00  0.00000000E+00
  0.00000000E+00  0.00000000E+00  0.00000000E+00
  0.00000000E+00  0.00000000E+00  0.00000000E+00
  0.00000000E+00  0.00000000E+00  0.00000000E+00
  0.00000000E+00  0.00000000E+00  0.00000000E+00
  0.00000000E+00  0.00000000E+00  0.00000000E+00
  0.00000000E+00  0.00000000E+00  0.00000000E+00
  0.00000000E+00  0.00000000E+00  0.00000000E+00
  0.00000000E+00  0.00000000E+00  0.00000000E+00
  0.00000000E+00  0.00000000E+00  0.00000000E+00
  0.00000000E+00  0.00000000E+00  0.00000000E+00
  0.00000000E+00  0.00000000E+00  0.00000000E+00
  0.00000000E+00  0.00000000E+00  0.00000000E+00
  0.00000000E+00  0.00000000E+00  0.00000000E+00
  0.00000000E+00  0.00000000E+00  0.00000000E+00
  0.00000000E+00  0.00000000E+00  0.00000000E+00
  0.00000000E+00  0.00000000E+00  0.00000000E+00
  0.00000000E+00  0.00000000E+00  0.00000000E+00
  0.00000000E+00  0.00000000E+00  0.00000000E+00
  0.00000000E+00  0.00000000E+00  0.00000000E+00
  0.00000000E+00  0.00000000E+00  0.00000000E+00
  0.00000000E+00  0.00000000E+00  0.00000000E+00
  0.00000000E+00  0.00000000E+00  0.00000000E+00
  0.00000000E+00  0.00000000E+00  0.00000000E+00
  0.00000000E+00  0.00000000E+00  0.00000000E+00
  0.00000000E+00  0.00000000E+00  0.00000000E+00
  0.00000000E+00  0.00000000E+00  0.00000000E+00
  0.00000000E+00  0.00000000E+00  0.00000000E+00
  0.00000000E+00  0.00000000E+00  0.00000000E+00
  0.00000000E+00  0.00000000E+00  0.00000000E+00
  0.00000000E+00  0.00000000E+00  0.00000000E+00
  0.00000000E+00  0.00000000E+00  0.00000000E+00
  0.00000000E+00  0.00000000E+00  0.00000000E+00
  0.00000000E+00  0.00000000E+00  0.00000000E+00
  0.00000000E+00  0.00000000E+00  0.00000000E+00
  0.00000000E+00  0.00000000E+00  0.00000000E+00
  0.00000000E+00  0.00000000E+00  0.00000000E+00
  0.00000000E+00  0.00000000E+00  0.00000000E+00
  0.00000000E+00  0.00000000E+00  0.00000000E+00
  0.00000000E+00  0.00000000E+00  0.00000000E+00
  0.00000000E+00  0.00000000E+00  0.00000000E+00
  0.00000000E+00  0.00000000E+00  0.00000000E+00
  0.00000000E+00  0.00000000E+00  0.00000000E+00
  0.00000000E+00  0.00000000E+00  0.00000000E+00
  0.00000000E+00  0.00000000E+00  0.00000000E+00
  0.00000000E+00  0.00000000E+00  0.00000000E+00
  0.00000000E+00  0.00000000E+00  0.00000000E+00
  0.00000000E+00  0.00000000E+00  0.00000000E+00
  0.00000000E+00  0.00000000E+00  0.00000000E+00
  0.00000000E+00  0.00000000E+00  0.00000000E+00
  0.00000000E+00  0.00000000E+00  0.00000000E+00
  0.00000000E+00  0.00000000E+00  0.00000000E+00
  0.00000000E+00  0.00000000E+00  0.00000000E+00
  0.00000000E+00  0.00000000E+00  0.00000000E+00
  0.00000000E+00  0.00000000E+00  0.00000000E+00
  0.00000000E+00  0.00000000E+00  0.00000000E+00
  0.00000000E+00  0.00000000E+00  0.00000000E+00
  0.00000000E+00  0.00000000E+00  0.00000000E+00
  0.00000000E+00  0.00000000E+00  0.00000000E+00
  0.00000000E+00  0.00000000E+00  0.00000000E+00
  0.00000000E+00  0.00000000E+00  0.00000000E+00
  0.00000000E+00  0.00000000E+00  0.00000000E+00
  0.00000000E+00  0.00000000E+00  0.00000000E+00
  0.00000000E+00  0.00000000E+00  0.00000000E+00
  0.00000000E+00  0.00000000E+00  0.00000000E+00
  0.00000000E+00  0.00000000E+00  0.00000000E+00
  0.00000000E+00  0.00000000E+00  0.00000000E+00
  0.00000000E+00  0.00000000E+00  0.00000000E+00
  0.00000000E+00  0.00000000E+00  0.00000000E+00
  0.00000000E+00  0.00000000E+00  0.00000000E+00
  0.00000000E+00  0.00000000E+00  0.00000000E+00
  0.00000000E+00  0.00000000E+00  0.00000000E+00
  0.00000000E+00  0.00000000E+00  0.00000000E+00
  0.00000000E+00  0.00000000E+00  0.00000000E+00
  0.00000000E+00  0.00000000E+00  0.00000000E+00
  0.00000000E+00  0.00000000E+00  0.00000000E+00
  0.00000000E+00  0.00000000E+00  0.00000000E+00
  0.00000000E+00  0.00000000E+00  0.00000000E+00
  0.00000000E+00  0.00000000E+00  0.00000000E+00
  0.00000000E+00  0.00000000E+00  0.00000000E+00
  0.00000000E+00  0.00000000E+00  0.00000000E+00
  0.00000000E+00  0.00000000E+00  0.00000000E+00
  0.00000000E+00  0.00000000E+00  0.00000000E+00
  0.00000000E+00  0.00000000E+00  0.00000000E+00
  0.00000000E+00  0.00000000E+00  0.00000000E+00
  0.00000000E+00  0.00000000E+00  0.00000000E+00
  0.00000000E+00  0.00000000E+00  0.00000000E+00
